Co C O H                                
   2.47000000000000     
     3.0000000000000000    0.0000000000000000    0.0000000000000000
    -1.5000000000000000    2.5980769230999998    0.0000000000000000
     0.0000000000000000    0.0000000000000000   10.0000000000000000
   Co   C    O    H 
    36     3     1     6
Selective dynamics
Direct
  0.2222223735499611  0.1111114137665936  0.0000000000000000   F   F   F
  0.5555557068832968  0.1111114137665936  0.0000000000000000   F   F   F
  0.8888890402166325  0.1111114137665936  0.0000000000000000   F   F   F
  0.2222220577330347  0.4444441154660765  0.0000000000000000   F   F   F
  0.5555553910663704  0.4444441154660765  0.0000000000000000   F   F   F
  0.8888887243997061  0.4444441154660765  0.0000000000000000   F   F   F
  0.5555543054492986  0.7777752775652615  0.0000000000000000   F   F   F
  0.8888876387826272  0.7777752775652615  0.0000000000000000   F   F   F
  0.2222209721159629  0.7777752775652615  0.0000000000000000   F   F   F
  0.0000000000000000  0.0000000000000000  0.0816498000000010   F   F   F
  0.3333333333333357  0.0000000000000000  0.0816498000000010   F   F   F
  0.6666666666666643  0.0000000000000000  0.0816498000000010   F   F   F
  0.3333330175164093  0.3333327016994829  0.0816498000000010   F   F   F
  0.6666663508497379  0.3333327016994829  0.0816498000000010   F   F   F
  0.9999996841830736  0.3333327016994829  0.0816498000000010   F   F   F
  0.3333330865995592  0.6666661731991113  0.0816498000000010   F   F   F
  0.6666664199328878  0.6666661731991113  0.0816498000000010   F   F   F
  0.9999997532662235  0.6666661731991113  0.0816498000000010   F   F   F
  0.8896384372544901  0.1109694617657908  0.1631921567793242   T   T   T
  0.2239407121851400  0.1100348282956247  0.1642905494422564   T   T   T
  0.5543193268109761  0.1092322556525716  0.1642517833802941   T   T   T
  0.2248519145662158  0.4464170793816464  0.1645802374343575   T   T   T
  0.5568214289545068  0.4435403460789757  0.1636827969339976   T   T   T
  0.8909716539102419  0.4459842045384264  0.1642416730877017   T   T   T
  0.2228749395213114  0.7774261748177125  0.1648418755033774   T   T   T
  0.5540289963052487  0.7755606773840498  0.1645301160355856   T   T   T
  0.8906046776004217  0.7766011482852377  0.1642867644007495   T   T   T
  0.9996954159018827  0.3279802120115036  0.2416051839954605   T   T   T
  0.3365308670302767  0.3324126105763696  0.2418025464532647   T   T   T
  0.6676833537871119  0.3323824040193770  0.2417533685003832   T   T   T
  0.3383057865293893  0.6621933552127928  0.2473186587340876   T   T   T
  0.6681587815001748  0.6638479808060040  0.2417731233191915   T   T   T
  0.9941995497329614  0.6615797360654625  0.2450474320983105   T   T   T
  0.3384078140758646  0.0057974636129998  0.2450566268453755   T   T   T
  0.6722839995126364  0.0005862257585392  0.2415759040414258   T   T   T
  0.9993684959811731  0.0011522500091203  0.2414723994420527   T   T   T
  0.3155458864920604  0.6838563688741814  0.3275275541448082   T   T   T
  0.5140557410663504  0.8281265070575046  0.3571052363884490   T   T   T
  0.1717374331897616  0.4855616428521898  0.3572431215281355   T   T   T
  0.2177847594680173  0.7816072128069251  0.3039371115332585   T   T   T
  0.4770366196299634  0.8662076717867677  0.3974558815105169   T   T   T
  0.6098317194718064  0.7546457327554137  0.3626785811153255   T   T   T
  0.6064571176023179  0.9761328959008608  0.3348609632486372   T   T   T
  0.1342521367955811  0.5229469097342161  0.3976279168860586   T   T   T
  0.0234341104352538  0.3926458250467135  0.3351845647002563   T   T   T
  0.2454462550483072  0.3899756169520927  0.3620169551858747   T   T   T
 
  0.00000000E+00  0.00000000E+00  0.00000000E+00
  0.00000000E+00  0.00000000E+00  0.00000000E+00
  0.00000000E+00  0.00000000E+00  0.00000000E+00
  0.00000000E+00  0.00000000E+00  0.00000000E+00
  0.00000000E+00  0.00000000E+00  0.00000000E+00
  0.00000000E+00  0.00000000E+00  0.00000000E+00
  0.00000000E+00  0.00000000E+00  0.00000000E+00
  0.00000000E+00  0.00000000E+00  0.00000000E+00
  0.00000000E+00  0.00000000E+00  0.00000000E+00
  0.00000000E+00  0.00000000E+00  0.00000000E+00
  0.00000000E+00  0.00000000E+00  0.00000000E+00
  0.00000000E+00  0.00000000E+00  0.00000000E+00
  0.00000000E+00  0.00000000E+00  0.00000000E+00
  0.00000000E+00  0.00000000E+00  0.00000000E+00
  0.00000000E+00  0.00000000E+00  0.00000000E+00
  0.00000000E+00  0.00000000E+00  0.00000000E+00
  0.00000000E+00  0.00000000E+00  0.00000000E+00
  0.00000000E+00  0.00000000E+00  0.00000000E+00
  0.00000000E+00  0.00000000E+00  0.00000000E+00
  0.00000000E+00  0.00000000E+00  0.00000000E+00
  0.00000000E+00  0.00000000E+00  0.00000000E+00
  0.00000000E+00  0.00000000E+00  0.00000000E+00
  0.00000000E+00  0.00000000E+00  0.00000000E+00
  0.00000000E+00  0.00000000E+00  0.00000000E+00
  0.00000000E+00  0.00000000E+00  0.00000000E+00
  0.00000000E+00  0.00000000E+00  0.00000000E+00
  0.00000000E+00  0.00000000E+00  0.00000000E+00
  0.00000000E+00  0.00000000E+00  0.00000000E+00
  0.00000000E+00  0.00000000E+00  0.00000000E+00
  0.00000000E+00  0.00000000E+00  0.00000000E+00
  0.00000000E+00  0.00000000E+00  0.00000000E+00
  0.00000000E+00  0.00000000E+00  0.00000000E+00
  0.00000000E+00  0.00000000E+00  0.00000000E+00
  0.00000000E+00  0.00000000E+00  0.00000000E+00
  0.00000000E+00  0.00000000E+00  0.00000000E+00
  0.00000000E+00  0.00000000E+00  0.00000000E+00
  0.00000000E+00  0.00000000E+00  0.00000000E+00
  0.00000000E+00  0.00000000E+00  0.00000000E+00
  0.00000000E+00  0.00000000E+00  0.00000000E+00
  0.00000000E+00  0.00000000E+00  0.00000000E+00
  0.00000000E+00  0.00000000E+00  0.00000000E+00
  0.00000000E+00  0.00000000E+00  0.00000000E+00
  0.00000000E+00  0.00000000E+00  0.00000000E+00
  0.00000000E+00  0.00000000E+00  0.00000000E+00
  0.00000000E+00  0.00000000E+00  0.00000000E+00
  0.00000000E+00  0.00000000E+00  0.00000000E+00
