Co C O H                                
   2.47000000000000     
     3.0000000000000000    0.0000000000000000    0.0000000000000000
    -1.5000000000000000    2.5980769230999998    0.0000000000000000
     0.0000000000000000    0.0000000000000000   10.0000000000000000
   Co   C    O    H 
    36     3     1     7
Selective dynamics
Direct
  0.2222223735499611  0.1111114137665936  0.0000000000000000   F   F   F
  0.5555557068832968  0.1111114137665936  0.0000000000000000   F   F   F
  0.8888890402166325  0.1111114137665936  0.0000000000000000   F   F   F
  0.2222220577330347  0.4444441154660765  0.0000000000000000   F   F   F
  0.5555553910663704  0.4444441154660765  0.0000000000000000   F   F   F
  0.8888887243997061  0.4444441154660765  0.0000000000000000   F   F   F
  0.5555543054492986  0.7777752775652615  0.0000000000000000   F   F   F
  0.8888876387826272  0.7777752775652615  0.0000000000000000   F   F   F
  0.2222209721159629  0.7777752775652615  0.0000000000000000   F   F   F
  0.0000000000000000  0.0000000000000000  0.0816498000000010   F   F   F
  0.3333333333333357  0.0000000000000000  0.0816498000000010   F   F   F
  0.6666666666666643  0.0000000000000000  0.0816498000000010   F   F   F
  0.3333330175164093  0.3333327016994829  0.0816498000000010   F   F   F
  0.6666663508497379  0.3333327016994829  0.0816498000000010   F   F   F
  0.9999996841830736  0.3333327016994829  0.0816498000000010   F   F   F
  0.3333330865995592  0.6666661731991113  0.0816498000000010   F   F   F
  0.6666664199328878  0.6666661731991113  0.0816498000000010   F   F   F
  0.9999997532662235  0.6666661731991113  0.0816498000000010   F   F   F
  0.2232859972662524  0.1130946445905607  0.1645221472008984   T   T   T
  0.5554581830521883  0.1108295846423815  0.1636965234202066   T   T   T
  0.8895385965492366  0.1132955382099468  0.1642825416124296   T   T   T
  0.2220298775248537  0.4442660131266152  0.1652123209448035   T   T   T
  0.5528959881140239  0.4428851093372117  0.1645319030945345   T   T   T
  0.8888289544653816  0.4438380480077484  0.1646339231994673   T   T   T
  0.5531437630517502  0.7769525501020880  0.1643196058158125   T   T   T
  0.8882390957523683  0.7779843904076458  0.1631055577807530   T   T   T
  0.2226709036036354  0.7776141845831290  0.1646563714322227   T   T   T
  0.9964943254062391  0.9945729353938830  0.2413083160245648   T   T   T
  0.3348691247537658  0.9991011641044309  0.2426618184812597   T   T   T
  0.6665800993213082  0.9998662718654714  0.2418279939918904   T   T   T
  0.3356559443885629  0.3298880718616246  0.2473708138164525   T   T   T
  0.6669445314308007  0.3313775221565223  0.2426142057791267   T   T   T
  0.9929659540725737  0.3293777818593995  0.2453393433618558   T   T   T
  0.3371827392996067  0.6731852375733496  0.2454234092086907   T   T   T
  0.6716115106321254  0.6695855091709078  0.2413229677708344   T   T   T
  0.9976035550659290  0.6689524654681236  0.2418673153859388   T   T   T
  0.4958526968610997  0.5072332003157811  0.3643291099116439   T   T   T
  0.3065380360181109  0.3550734837365681  0.3324582554580431   T   T   T
  0.1508148855314246  0.1651399790566117  0.3635578189556270   T   T   T
  0.2137735561714109  0.4513789129026478  0.3049295144124216   T   T   T
  0.6011096961630003  0.6422189310325876  0.3390830238431306   T   T   T
  0.5824315394190052  0.4325869942675382  0.3791475545697409   T   T   T
  0.4456206771376827  0.5642565916424545  0.3992320860359655   T   T   T
  0.4096050374498290  0.2507336209398972  0.2976229610435084   T   T   T
  0.2223319735995801  0.0755318277992814  0.3783066000938078   T   T   T
  0.0932086422521863  0.2149121542211887  0.3984229570519062   T   T   T
  0.0162774532584038  0.0626644234068934  0.3369582246776541   T   T   T
 
  0.00000000E+00  0.00000000E+00  0.00000000E+00
  0.00000000E+00  0.00000000E+00  0.00000000E+00
  0.00000000E+00  0.00000000E+00  0.00000000E+00
  0.00000000E+00  0.00000000E+00  0.00000000E+00
  0.00000000E+00  0.00000000E+00  0.00000000E+00
  0.00000000E+00  0.00000000E+00  0.00000000E+00
  0.00000000E+00  0.00000000E+00  0.00000000E+00
  0.00000000E+00  0.00000000E+00  0.00000000E+00
  0.00000000E+00  0.00000000E+00  0.00000000E+00
  0.00000000E+00  0.00000000E+00  0.00000000E+00
  0.00000000E+00  0.00000000E+00  0.00000000E+00
  0.00000000E+00  0.00000000E+00  0.00000000E+00
  0.00000000E+00  0.00000000E+00  0.00000000E+00
  0.00000000E+00  0.00000000E+00  0.00000000E+00
  0.00000000E+00  0.00000000E+00  0.00000000E+00
  0.00000000E+00  0.00000000E+00  0.00000000E+00
  0.00000000E+00  0.00000000E+00  0.00000000E+00
  0.00000000E+00  0.00000000E+00  0.00000000E+00
  0.00000000E+00  0.00000000E+00  0.00000000E+00
  0.00000000E+00  0.00000000E+00  0.00000000E+00
  0.00000000E+00  0.00000000E+00  0.00000000E+00
  0.00000000E+00  0.00000000E+00  0.00000000E+00
  0.00000000E+00  0.00000000E+00  0.00000000E+00
  0.00000000E+00  0.00000000E+00  0.00000000E+00
  0.00000000E+00  0.00000000E+00  0.00000000E+00
  0.00000000E+00  0.00000000E+00  0.00000000E+00
  0.00000000E+00  0.00000000E+00  0.00000000E+00
  0.00000000E+00  0.00000000E+00  0.00000000E+00
  0.00000000E+00  0.00000000E+00  0.00000000E+00
  0.00000000E+00  0.00000000E+00  0.00000000E+00
  0.00000000E+00  0.00000000E+00  0.00000000E+00
  0.00000000E+00  0.00000000E+00  0.00000000E+00
  0.00000000E+00  0.00000000E+00  0.00000000E+00
  0.00000000E+00  0.00000000E+00  0.00000000E+00
  0.00000000E+00  0.00000000E+00  0.00000000E+00
  0.00000000E+00  0.00000000E+00  0.00000000E+00
  0.00000000E+00  0.00000000E+00  0.00000000E+00
  0.00000000E+00  0.00000000E+00  0.00000000E+00
  0.00000000E+00  0.00000000E+00  0.00000000E+00
  0.00000000E+00  0.00000000E+00  0.00000000E+00
  0.00000000E+00  0.00000000E+00  0.00000000E+00
  0.00000000E+00  0.00000000E+00  0.00000000E+00
  0.00000000E+00  0.00000000E+00  0.00000000E+00
  0.00000000E+00  0.00000000E+00  0.00000000E+00
  0.00000000E+00  0.00000000E+00  0.00000000E+00
  0.00000000E+00  0.00000000E+00  0.00000000E+00
  0.00000000E+00  0.00000000E+00  0.00000000E+00
