Co C O H                                
   2.47000000000000     
     3.4655869999999998    0.0000000000000000    0.0000000000000000
     0.0000000000000000    3.2469629999999996    0.0000000000000000
     0.0000000000000000    0.0000000000000000    9.0000000000000000
   Co   C    O    H 
    32     3     1     7
Selective dynamics
Direct
  0.4999989900700825  0.4999995380298472  0.0000000000000000   F   F   F
  0.6667066791282394  0.7499993070447672  0.0000000000000000   F   F   F
  0.4999989900700825  0.0000000000000000  0.0000000000000000   F   F   F
  0.6667066791282394  0.2500000769950290  0.0000000000000000   F   F   F
  0.0000000000000000  0.4999995380298472  0.0000000000000000   F   F   F
  0.1667056691983220  0.7499993070447672  0.0000000000000000   F   F   F
  0.0000000000000000  0.0000000000000000  0.0000000000000000   F   F   F
  0.1667056691983220  0.2500000769950290  0.0000000000000000   F   F   F
  0.7499999278621488  0.4999995380298472  0.0555555555555571   F   F   F
  0.9167047314062557  0.7499993070447672  0.0555555555555571   F   F   F
  0.7499999278621488  0.0000000000000000  0.0555555555555571   F   F   F
  0.9167047314062557  0.2500000769950290  0.0555555555555571   F   F   F
  0.2500000721378512  0.4999995380298472  0.0555555555555571   F   F   F
  0.4167057413361732  0.7499993070447672  0.0555555555555571   F   F   F
  0.2500000721378512  0.0000000000000000  0.0555555555555571   F   F   F
  0.4167057413361732  0.2500000769950290  0.0555555555555571   F   F   F
  0.5029378665332729  0.5005401344140168  0.1115786843831046   T   T   T
  0.6620688968270798  0.7509211126115716  0.1117210799887047   T   T   T
  0.4965301594138936  0.9979133701751053  0.1119173517332470   T   T   T
  0.6646089882836179  0.2487772440359066  0.1124044774763959   T   T   T
  0.0041962006064935  0.5009896817125821  0.1122743895185678   T   T   T
  0.1677985412918162  0.7521856823668855  0.1110277019500643   T   T   T
  0.0039142288548675  0.9995354484104055  0.1118232790576670   T   T   T
  0.1661658804545496  0.2489217438749662  0.1117666150484240   T   T   T
  0.7573043635513415  0.5001721248547213  0.1624502919762065   T   T   T
  0.9086673686321447  0.7498641558220598  0.1620851870108879   T   T   T
  0.7572588625838463  0.9997337337991965  0.1617318788221311   T   T   T
  0.9105610325973998  0.2500567646904983  0.1624564560693997   T   T   T
  0.2571997453273625  0.4992415493242319  0.1625367636478714   T   T   T
  0.4143163128447682  0.7440548003750536  0.1682934001838134   T   T   T
  0.2509080059572071  0.0047249768731987  0.1683058839861289   T   T   T
  0.4136997847079940  0.2501707758877316  0.1622761071374370   T   T   T
  0.2436075026298923  0.6962922652986236  0.3081331547080026   T   T   T
  0.3388772721987294  0.8005220476407189  0.2644142494072526   T   T   T
  0.5075914111017354  0.8261922351984623  0.2832967436053195   T   T   T
  0.2621943821594073  0.9377247377059135  0.2468662723318076   T   T   T
  0.1278734021242371  0.6694805983449683  0.2891620529842669   T   T   T
  0.2282790184103263  0.7691643473935912  0.3498010441457993   T   T   T
  0.3026852180708630  0.5785181038217004  0.3189586662113157   T   T   T
  0.3271980258212750  0.6381952334112668  0.2191179634383573   T   T   T
  0.5074490247689170  0.8861193181672533  0.3281038029560364   T   T   T
  0.5713865655735475  0.7077192945846065  0.2863931357376899   T   T   T
  0.5692689562534383  0.9096761681111971  0.2510154986132502   T   T   T
 
  0.00000000E+00  0.00000000E+00  0.00000000E+00
  0.00000000E+00  0.00000000E+00  0.00000000E+00
  0.00000000E+00  0.00000000E+00  0.00000000E+00
  0.00000000E+00  0.00000000E+00  0.00000000E+00
  0.00000000E+00  0.00000000E+00  0.00000000E+00
  0.00000000E+00  0.00000000E+00  0.00000000E+00
  0.00000000E+00  0.00000000E+00  0.00000000E+00
  0.00000000E+00  0.00000000E+00  0.00000000E+00
  0.00000000E+00  0.00000000E+00  0.00000000E+00
  0.00000000E+00  0.00000000E+00  0.00000000E+00
  0.00000000E+00  0.00000000E+00  0.00000000E+00
  0.00000000E+00  0.00000000E+00  0.00000000E+00
  0.00000000E+00  0.00000000E+00  0.00000000E+00
  0.00000000E+00  0.00000000E+00  0.00000000E+00
  0.00000000E+00  0.00000000E+00  0.00000000E+00
  0.00000000E+00  0.00000000E+00  0.00000000E+00
  0.00000000E+00  0.00000000E+00  0.00000000E+00
  0.00000000E+00  0.00000000E+00  0.00000000E+00
  0.00000000E+00  0.00000000E+00  0.00000000E+00
  0.00000000E+00  0.00000000E+00  0.00000000E+00
  0.00000000E+00  0.00000000E+00  0.00000000E+00
  0.00000000E+00  0.00000000E+00  0.00000000E+00
  0.00000000E+00  0.00000000E+00  0.00000000E+00
  0.00000000E+00  0.00000000E+00  0.00000000E+00
  0.00000000E+00  0.00000000E+00  0.00000000E+00
  0.00000000E+00  0.00000000E+00  0.00000000E+00
  0.00000000E+00  0.00000000E+00  0.00000000E+00
  0.00000000E+00  0.00000000E+00  0.00000000E+00
  0.00000000E+00  0.00000000E+00  0.00000000E+00
  0.00000000E+00  0.00000000E+00  0.00000000E+00
  0.00000000E+00  0.00000000E+00  0.00000000E+00
  0.00000000E+00  0.00000000E+00  0.00000000E+00
  0.00000000E+00  0.00000000E+00  0.00000000E+00
  0.00000000E+00  0.00000000E+00  0.00000000E+00
  0.00000000E+00  0.00000000E+00  0.00000000E+00
  0.00000000E+00  0.00000000E+00  0.00000000E+00
  0.00000000E+00  0.00000000E+00  0.00000000E+00
  0.00000000E+00  0.00000000E+00  0.00000000E+00
  0.00000000E+00  0.00000000E+00  0.00000000E+00
  0.00000000E+00  0.00000000E+00  0.00000000E+00
  0.00000000E+00  0.00000000E+00  0.00000000E+00
  0.00000000E+00  0.00000000E+00  0.00000000E+00
  0.00000000E+00  0.00000000E+00  0.00000000E+00
