Co C O H                                
   2.47000000000000     
     3.0000000000000000    0.0000000000000000    0.0000000000000000
    -1.5000000000000000    2.5980769230999998    0.0000000000000000
     0.0000000000000000    0.0000000000000000   10.0000000000000000
   Co   C    O    H 
    36     3     1     7
Selective dynamics
Direct
  0.2222223735499611  0.1111114137665936  0.0000000000000000   F   F   F
  0.5555557068832968  0.1111114137665936  0.0000000000000000   F   F   F
  0.8888890402166325  0.1111114137665936  0.0000000000000000   F   F   F
  0.2222220577330347  0.4444441154660765  0.0000000000000000   F   F   F
  0.5555553910663704  0.4444441154660765  0.0000000000000000   F   F   F
  0.8888887243997061  0.4444441154660765  0.0000000000000000   F   F   F
  0.5555543054492986  0.7777752775652615  0.0000000000000000   F   F   F
  0.8888876387826272  0.7777752775652615  0.0000000000000000   F   F   F
  0.2222209721159629  0.7777752775652615  0.0000000000000000   F   F   F
  0.0000000000000000  0.0000000000000000  0.0816498000000010   F   F   F
  0.3333333333333357  0.0000000000000000  0.0816498000000010   F   F   F
  0.6666666666666643  0.0000000000000000  0.0816498000000010   F   F   F
  0.3333330175164093  0.3333327016994829  0.0816498000000010   F   F   F
  0.6666663508497379  0.3333327016994829  0.0816498000000010   F   F   F
  0.9999996841830736  0.3333327016994829  0.0816498000000010   F   F   F
  0.3333330865995592  0.6666661731991113  0.0816498000000010   F   F   F
  0.6666664199328878  0.6666661731991113  0.0816498000000010   F   F   F
  0.9999997532662235  0.6666661731991113  0.0816498000000010   F   F   F
  0.2197677967737164  0.1117500918229766  0.1652043972447075   T   T   T
  0.5554822738792282  0.1106424559105506  0.1635155614415140   T   T   T
  0.8888478330457872  0.1091213115528120  0.1646380498310407   T   T   T
  0.2224233110568434  0.4420039326211125  0.1645531584479301   T   T   T
  0.5519789061439653  0.4418218137811820  0.1641413306793353   T   T   T
  0.8874204276920992  0.4432223957159138  0.1637216153348149   T   T   T
  0.5545426902713686  0.7764691547502736  0.1640319720983143   T   T   T
  0.8885107033257356  0.7790553530058943  0.1645587335400762   T   T   T
  0.2208321355847858  0.7761007255610934  0.1635404764094446   T   T   T
  0.9976194427443801  0.9974656636322692  0.2459597601721413   T   T   T
  0.3347064849962749  0.9967430218836668  0.2408183391015584   T   T   T
  0.6640861422099604  0.9982193239859853  0.2420732240760444   T   T   T
  0.3292964014892732  0.3306742348202292  0.2479249531633201   T   T   T
  0.6639539522500328  0.3314884866711978  0.2418676594062035   T   T   T
  0.9971351698312105  0.3351870559290049  0.2417699541305609   T   T   T
  0.3328373677809680  0.6666958013553668  0.2421533885473721   T   T   T
  0.6624272081773483  0.6626526978023080  0.2422010870506455   T   T   T
  0.9982258591868174  0.6645116283666894  0.2416756666758886   T   T   T
  0.2545412198031727  0.2668501190727000  0.3270433826329580   T   T   T
  0.4326374357944616  0.2781493228056320  0.3601122475970016   T   T   T
  0.1734144829795810  0.3986209605728561  0.3526096696238739   T   T   T
  0.0756662760480680  0.0510469587530267  0.3300035302099502   T   T   T
  0.5664227715413901  0.4375195738396300  0.3593676685177059   T   T   T
  0.3827704365508211  0.2346073040868291  0.4026968481318249   T   T   T
  0.4861994270396224  0.1740883308944703  0.3439805706117980   T   T   T
  0.2914387963048313  0.5648853911750464  0.3500438823003265   T   T   T
  0.1343120056009752  0.3550238780121902  0.3956840076128714   T   T   T
  0.0296167738225463  0.3763782367247686  0.3326648605709508   T   T   T
  0.1315085405751191  0.9557981251849270  0.3332220765829703   T   T   T
 
  0.00000000E+00  0.00000000E+00  0.00000000E+00
  0.00000000E+00  0.00000000E+00  0.00000000E+00
  0.00000000E+00  0.00000000E+00  0.00000000E+00
  0.00000000E+00  0.00000000E+00  0.00000000E+00
  0.00000000E+00  0.00000000E+00  0.00000000E+00
  0.00000000E+00  0.00000000E+00  0.00000000E+00
  0.00000000E+00  0.00000000E+00  0.00000000E+00
  0.00000000E+00  0.00000000E+00  0.00000000E+00
  0.00000000E+00  0.00000000E+00  0.00000000E+00
  0.00000000E+00  0.00000000E+00  0.00000000E+00
  0.00000000E+00  0.00000000E+00  0.00000000E+00
  0.00000000E+00  0.00000000E+00  0.00000000E+00
  0.00000000E+00  0.00000000E+00  0.00000000E+00
  0.00000000E+00  0.00000000E+00  0.00000000E+00
  0.00000000E+00  0.00000000E+00  0.00000000E+00
  0.00000000E+00  0.00000000E+00  0.00000000E+00
  0.00000000E+00  0.00000000E+00  0.00000000E+00
  0.00000000E+00  0.00000000E+00  0.00000000E+00
  0.00000000E+00  0.00000000E+00  0.00000000E+00
  0.00000000E+00  0.00000000E+00  0.00000000E+00
  0.00000000E+00  0.00000000E+00  0.00000000E+00
  0.00000000E+00  0.00000000E+00  0.00000000E+00
  0.00000000E+00  0.00000000E+00  0.00000000E+00
  0.00000000E+00  0.00000000E+00  0.00000000E+00
  0.00000000E+00  0.00000000E+00  0.00000000E+00
  0.00000000E+00  0.00000000E+00  0.00000000E+00
  0.00000000E+00  0.00000000E+00  0.00000000E+00
  0.00000000E+00  0.00000000E+00  0.00000000E+00
  0.00000000E+00  0.00000000E+00  0.00000000E+00
  0.00000000E+00  0.00000000E+00  0.00000000E+00
  0.00000000E+00  0.00000000E+00  0.00000000E+00
  0.00000000E+00  0.00000000E+00  0.00000000E+00
  0.00000000E+00  0.00000000E+00  0.00000000E+00
  0.00000000E+00  0.00000000E+00  0.00000000E+00
  0.00000000E+00  0.00000000E+00  0.00000000E+00
  0.00000000E+00  0.00000000E+00  0.00000000E+00
  0.00000000E+00  0.00000000E+00  0.00000000E+00
  0.00000000E+00  0.00000000E+00  0.00000000E+00
  0.00000000E+00  0.00000000E+00  0.00000000E+00
  0.00000000E+00  0.00000000E+00  0.00000000E+00
  0.00000000E+00  0.00000000E+00  0.00000000E+00
  0.00000000E+00  0.00000000E+00  0.00000000E+00
  0.00000000E+00  0.00000000E+00  0.00000000E+00
  0.00000000E+00  0.00000000E+00  0.00000000E+00
  0.00000000E+00  0.00000000E+00  0.00000000E+00
  0.00000000E+00  0.00000000E+00  0.00000000E+00
  0.00000000E+00  0.00000000E+00  0.00000000E+00
