Co C O H                                
   2.47000000000000     
     3.4655869999999998    0.0000000000000000    0.0000000000000000
     0.0000000000000000    3.2469629999999996    0.0000000000000000
     0.0000000000000000    0.0000000000000000    9.0000000000000000
   Co   C    O    H 
    32     3     1     7
Selective dynamics
Direct
  0.4999989900700825  0.4999995380298472  0.0000000000000000   F   F   F
  0.6667066791282394  0.7499993070447672  0.0000000000000000   F   F   F
  0.4999989900700825  0.0000000000000000  0.0000000000000000   F   F   F
  0.6667066791282394  0.2500000769950290  0.0000000000000000   F   F   F
  0.0000000000000000  0.4999995380298472  0.0000000000000000   F   F   F
  0.1667056691983220  0.7499993070447672  0.0000000000000000   F   F   F
  0.0000000000000000  0.0000000000000000  0.0000000000000000   F   F   F
  0.1667056691983220  0.2500000769950290  0.0000000000000000   F   F   F
  0.7499999278621488  0.4999995380298472  0.0555555555555571   F   F   F
  0.9167047314062557  0.7499993070447672  0.0555555555555571   F   F   F
  0.7499999278621488  0.0000000000000000  0.0555555555555571   F   F   F
  0.9167047314062557  0.2500000769950290  0.0555555555555571   F   F   F
  0.2500000721378512  0.4999995380298472  0.0555555555555571   F   F   F
  0.4167057413361732  0.7499993070447672  0.0555555555555571   F   F   F
  0.2500000721378512  0.0000000000000000  0.0555555555555571   F   F   F
  0.4167057413361732  0.2500000769950290  0.0555555555555571   F   F   F
  0.5007023953911443  0.4989470948438139  0.1119576190351665   T   T   T
  0.6650338418562711  0.7500013503135676  0.1121990361839309   T   T   T
  0.5035366005771849  0.0003913739457246  0.1120754231933390   T   T   T
  0.6653251216557976  0.2496125716720812  0.1121083950803907   T   T   T
  0.0017238354981401  0.4995700095184077  0.1126370950575293   T   T   T
  0.1647298759500302  0.7518028445251588  0.1119972700622256   T   T   T
  0.0030095218887425  0.0003423046772753  0.1112009825283096   T   T   T
  0.1669468927127866  0.2477326474697321  0.1117540592020632   T   T   T
  0.7572718902577691  0.5001836012095495  0.1626164299123403   T   T   T
  0.9112000036519348  0.7512001766640637  0.1630123894539395   T   T   T
  0.7572020401563364  0.9993080568067256  0.1625711051211525   T   T   T
  0.9109783970978071  0.2488788830639734  0.1627461739746678   T   T   T
  0.2528927231375562  0.4990589769800096  0.1621777949029237   T   T   T
  0.4071737884554310  0.7468493129562006  0.1630747414580966   T   T   T
  0.2488451724214471  0.9961721187327655  0.1652140845208834   T   T   T
  0.4091636347613701  0.2546024728927279  0.1661528988106866   T   T   T
  0.2154328015806755  0.0666931964713555  0.2835494623612718   T   T   T
  0.3518266884291990  0.0029509818122193  0.2462391819035972   T   T   T
  0.4221755808057281  0.8440986450694439  0.2712833943831257   T   T   T
  0.4664287866390211  0.1263791698778647  0.2385969337308183   T   T   T
  0.1215016720414894  0.9734775047652846  0.2858293400089309   T   T   T
  0.1673429592295292  0.1828748279941550  0.2648563853763761   T   T   T
  0.2564843161830268  0.0924394315760608  0.3298277403261807   T   T   T
  0.5577811884925197  0.0668876585566096  0.1923935606823406   T   T   T
  0.5187444051715602  0.7936033479507287  0.2425869721988292   T   T   T
  0.4807288732649013  0.8705238651624398  0.3146608997831208   T   T   T
  0.3328925146897319  0.7479184507918930  0.2779614302220435   T   T   T
 
  0.00000000E+00  0.00000000E+00  0.00000000E+00
  0.00000000E+00  0.00000000E+00  0.00000000E+00
  0.00000000E+00  0.00000000E+00  0.00000000E+00
  0.00000000E+00  0.00000000E+00  0.00000000E+00
  0.00000000E+00  0.00000000E+00  0.00000000E+00
  0.00000000E+00  0.00000000E+00  0.00000000E+00
  0.00000000E+00  0.00000000E+00  0.00000000E+00
  0.00000000E+00  0.00000000E+00  0.00000000E+00
  0.00000000E+00  0.00000000E+00  0.00000000E+00
  0.00000000E+00  0.00000000E+00  0.00000000E+00
  0.00000000E+00  0.00000000E+00  0.00000000E+00
  0.00000000E+00  0.00000000E+00  0.00000000E+00
  0.00000000E+00  0.00000000E+00  0.00000000E+00
  0.00000000E+00  0.00000000E+00  0.00000000E+00
  0.00000000E+00  0.00000000E+00  0.00000000E+00
  0.00000000E+00  0.00000000E+00  0.00000000E+00
  0.00000000E+00  0.00000000E+00  0.00000000E+00
  0.00000000E+00  0.00000000E+00  0.00000000E+00
  0.00000000E+00  0.00000000E+00  0.00000000E+00
  0.00000000E+00  0.00000000E+00  0.00000000E+00
  0.00000000E+00  0.00000000E+00  0.00000000E+00
  0.00000000E+00  0.00000000E+00  0.00000000E+00
  0.00000000E+00  0.00000000E+00  0.00000000E+00
  0.00000000E+00  0.00000000E+00  0.00000000E+00
  0.00000000E+00  0.00000000E+00  0.00000000E+00
  0.00000000E+00  0.00000000E+00  0.00000000E+00
  0.00000000E+00  0.00000000E+00  0.00000000E+00
  0.00000000E+00  0.00000000E+00  0.00000000E+00
  0.00000000E+00  0.00000000E+00  0.00000000E+00
  0.00000000E+00  0.00000000E+00  0.00000000E+00
  0.00000000E+00  0.00000000E+00  0.00000000E+00
  0.00000000E+00  0.00000000E+00  0.00000000E+00
  0.00000000E+00  0.00000000E+00  0.00000000E+00
  0.00000000E+00  0.00000000E+00  0.00000000E+00
  0.00000000E+00  0.00000000E+00  0.00000000E+00
  0.00000000E+00  0.00000000E+00  0.00000000E+00
  0.00000000E+00  0.00000000E+00  0.00000000E+00
  0.00000000E+00  0.00000000E+00  0.00000000E+00
  0.00000000E+00  0.00000000E+00  0.00000000E+00
  0.00000000E+00  0.00000000E+00  0.00000000E+00
  0.00000000E+00  0.00000000E+00  0.00000000E+00
  0.00000000E+00  0.00000000E+00  0.00000000E+00
  0.00000000E+00  0.00000000E+00  0.00000000E+00
