Co C O H                                
   2.47000000000000     
     3.0000000000000000    0.0000000000000000    0.0000000000000000
    -1.5000000000000000    2.5980769230999998    0.0000000000000000
     0.0000000000000000    0.0000000000000000   10.0000000000000000
   Co   C    O    H 
    36     3     1     8
Selective dynamics
Direct
  0.2222223735499611  0.1111114137665936  0.0000000000000000   F   F   F
  0.5555557068832968  0.1111114137665936  0.0000000000000000   F   F   F
  0.8888890402166325  0.1111114137665936  0.0000000000000000   F   F   F
  0.2222220577330347  0.4444441154660765  0.0000000000000000   F   F   F
  0.5555553910663704  0.4444441154660765  0.0000000000000000   F   F   F
  0.8888887243997061  0.4444441154660765  0.0000000000000000   F   F   F
  0.5555543054492986  0.7777752775652615  0.0000000000000000   F   F   F
  0.8888876387826272  0.7777752775652615  0.0000000000000000   F   F   F
  0.2222209721159629  0.7777752775652615  0.0000000000000000   F   F   F
  0.0000000000000000  0.0000000000000000  0.0816498000000010   F   F   F
  0.3333333333333357  0.0000000000000000  0.0816498000000010   F   F   F
  0.6666666666666643  0.0000000000000000  0.0816498000000010   F   F   F
  0.3333330175164093  0.3333327016994829  0.0816498000000010   F   F   F
  0.6666663508497379  0.3333327016994829  0.0816498000000010   F   F   F
  0.9999996841830736  0.3333327016994829  0.0816498000000010   F   F   F
  0.3333330865995592  0.6666661731991113  0.0816498000000010   F   F   F
  0.6666664199328878  0.6666661731991113  0.0816498000000010   F   F   F
  0.9999997532662235  0.6666661731991113  0.0816498000000010   F   F   F
  0.2227621195972418  0.1121427412117413  0.1642470253410906   T   T   T
  0.5551573260407849  0.1113438730488312  0.1637293235189645   T   T   T
  0.8882999213226626  0.1112779264811223  0.1641832744781908   T   T   T
  0.2221964347378176  0.4447622608085240  0.1646951813644648   T   T   T
  0.5556411743750473  0.4456013780746488  0.1637843071659546   T   T   T
  0.8888347664757674  0.4458608417872583  0.1636843833670767   T   T   T
  0.5529241267378424  0.7769616040940051  0.1646717889271940   T   T   T
  0.8896104317498867  0.7798021604408234  0.1638884218999408   T   T   T
  0.2231989151079006  0.7770284207939824  0.1645140161426468   T   T   T
  0.0006605523796210  0.0035841236143028  0.2437031665181308   T   T   T
  0.3326255596986911  0.9975235458220411  0.2423611456684256   T   T   T
  0.6636921250262589  0.9981583567524908  0.2424558234209613   T   T   T
  0.3409636452922555  0.3324975974168396  0.2430215390763379   T   T   T
  0.6657639735967749  0.3320806956062583  0.2418331121550139   T   T   T
  0.9898530735318047  0.3308099434800411  0.2421870889608329   T   T   T
  0.3320231142656809  0.6649448750640445  0.2456675244868904   T   T   T
  0.6727807297802784  0.6705619461184966  0.2420234715800831   T   T   T
  0.9978704891911860  0.6694599013981986  0.2421607723304930   T   T   T
  0.5105402601415392  0.6425461593345148  0.3757401312933055   T   T   T
  0.3007370000591649  0.4473978992160710  0.3683577060515049   T   T   T
  0.3020343337409273  0.2502578562910784  0.3841470083076075   T   T   T
  0.2418324800480249  0.4356604125188710  0.3113942626350479   T   T   T
  0.5055510991431049  0.7814289385398325  0.3622796894177540   T   T   T
  0.6299032138345382  0.6309965999980420  0.3516469537665046   T   T   T
  0.5572873332939565  0.6618296766452119  0.4185972183677151   T   T   T
  0.1798515443986943  0.4603168855686803  0.3912823620473560   T   T   T
  0.1242607877343858  0.2511734292203727  0.2924520388609224   T   T   T
  0.4180252065147130  0.2350637229126988  0.3596600126706591   T   T   T
  0.3424948337698126  0.2559935199540462  0.4272049221594401   T   T   T
  0.1488414656780748  0.1112097667281304  0.3772507894578467   T   T   T
 
             NaN             NaN             NaN
             NaN             NaN             NaN
             NaN             NaN             NaN
             NaN             NaN             NaN
             NaN             NaN             NaN
             NaN             NaN             NaN
             NaN             NaN             NaN
             NaN             NaN             NaN
             NaN             NaN             NaN
             NaN             NaN             NaN
             NaN             NaN             NaN
             NaN             NaN             NaN
             NaN             NaN             NaN
             NaN             NaN             NaN
             NaN             NaN             NaN
             NaN             NaN             NaN
             NaN             NaN             NaN
             NaN             NaN             NaN
             NaN             NaN             NaN
             NaN             NaN             NaN
             NaN             NaN             NaN
             NaN             NaN             NaN
             NaN             NaN             NaN
             NaN             NaN             NaN
             NaN             NaN             NaN
             NaN             NaN             NaN
             NaN             NaN             NaN
             NaN             NaN             NaN
             NaN             NaN             NaN
             NaN             NaN             NaN
             NaN             NaN             NaN
             NaN             NaN             NaN
             NaN             NaN             NaN
             NaN             NaN             NaN
             NaN             NaN             NaN
             NaN             NaN             NaN
             NaN             NaN             NaN
             NaN             NaN             NaN
             NaN             NaN             NaN
             NaN             NaN             NaN
             NaN             NaN             NaN
             NaN             NaN             NaN
             NaN             NaN             NaN
             NaN             NaN             NaN
             NaN             NaN             NaN
             NaN             NaN             NaN
             NaN             NaN             NaN
             NaN             NaN             NaN
