Co H                                    
   2.47000000000000     
     3.0000000000000000    0.0000000000000000    0.0000000000000000
    -1.5000000000000000    2.5980769230999998    0.0000000000000000
     0.0000000000000000    0.0000000000000000   10.0000000000000000
   Co   H 
    36     1
Selective dynamics
Direct
  0.2222223735499611  0.1111114137665936  0.0000000000000000   F   F   F
  0.5555557068832968  0.1111114137665936  0.0000000000000000   F   F   F
  0.8888890402166325  0.1111114137665936  0.0000000000000000   F   F   F
  0.2222220577330347  0.4444441154660765  0.0000000000000000   F   F   F
  0.5555553910663704  0.4444441154660765  0.0000000000000000   F   F   F
  0.8888887243997061  0.4444441154660765  0.0000000000000000   F   F   F
  0.5555543054492986  0.7777752775652615  0.0000000000000000   F   F   F
  0.8888876387826272  0.7777752775652615  0.0000000000000000   F   F   F
  0.2222209721159629  0.7777752775652615  0.0000000000000000   F   F   F
  0.0000000000000000  0.0000000000000000  0.0816498000000010   F   F   F
  0.3333333333333357  0.0000000000000000  0.0816498000000010   F   F   F
  0.6666666666666643  0.0000000000000000  0.0816498000000010   F   F   F
  0.3333330175164093  0.3333327016994829  0.0816498000000010   F   F   F
  0.6666663508497379  0.3333327016994829  0.0816498000000010   F   F   F
  0.9999996841830736  0.3333327016994829  0.0816498000000010   F   F   F
  0.3333330865995592  0.6666661731991113  0.0816498000000010   F   F   F
  0.6666664199328878  0.6666661731991113  0.0816498000000010   F   F   F
  0.9999997532662235  0.6666661731991113  0.0816498000000010   F   F   F
  0.2228621793160244  0.1142202297845998  0.1645462420031194   T   T   T
  0.5558482655287520  0.1141674826562635  0.1645680068780848   T   T   T
  0.8893646492358371  0.1138305588440431  0.1642151877951719   T   T   T
  0.2229369793299796  0.4471777341899497  0.1643216998163339   T   T   T
  0.5558432066235639  0.4471972791880248  0.1645565983768549   T   T   T
  0.8889310308380445  0.4472498659138608  0.1643533726396029   T   T   T
  0.5562637365710188  0.7808981689600785  0.1642047262320858   T   T   T
  0.8892359859459376  0.7809604959617076  0.1642122145225358   T   T   T
  0.2228636253056777  0.7811358567573095  0.1643369573560065   T   T   T
  0.9999299309458252  0.0032552960936414  0.2426284836504493   T   T   T
  0.3337887300347688  0.0029816649643593  0.2441640449744824   T   T   T
  0.6679387469787770  0.0033318190150666  0.2426039819534580   T   T   T
  0.3337069427950681  0.3372910339141981  0.2441597460892737   T   T   T
  0.6680992085824542  0.3371955885152076  0.2441494637314321   T   T   T
  0.0008987530382001  0.3370580024070406  0.2426372772997425   T   T   T
  0.3344888559262102  0.6705192227170542  0.2426472714327801   T   T   T
  0.6679165039139150  0.6709571112389412  0.2425980501732923   T   T   T
  0.0008535195060162  0.6704414218753669  0.2426382751974998   T   T   T
  0.4450266976780455  0.2256340030811899  0.2844720214019461   T   T   T
 
  0.00000000E+00  0.00000000E+00  0.00000000E+00
  0.00000000E+00  0.00000000E+00  0.00000000E+00
  0.00000000E+00  0.00000000E+00  0.00000000E+00
  0.00000000E+00  0.00000000E+00  0.00000000E+00
  0.00000000E+00  0.00000000E+00  0.00000000E+00
  0.00000000E+00  0.00000000E+00  0.00000000E+00
  0.00000000E+00  0.00000000E+00  0.00000000E+00
  0.00000000E+00  0.00000000E+00  0.00000000E+00
  0.00000000E+00  0.00000000E+00  0.00000000E+00
  0.00000000E+00  0.00000000E+00  0.00000000E+00
  0.00000000E+00  0.00000000E+00  0.00000000E+00
  0.00000000E+00  0.00000000E+00  0.00000000E+00
  0.00000000E+00  0.00000000E+00  0.00000000E+00
  0.00000000E+00  0.00000000E+00  0.00000000E+00
  0.00000000E+00  0.00000000E+00  0.00000000E+00
  0.00000000E+00  0.00000000E+00  0.00000000E+00
  0.00000000E+00  0.00000000E+00  0.00000000E+00
  0.00000000E+00  0.00000000E+00  0.00000000E+00
  0.00000000E+00  0.00000000E+00  0.00000000E+00
  0.00000000E+00  0.00000000E+00  0.00000000E+00
  0.00000000E+00  0.00000000E+00  0.00000000E+00
  0.00000000E+00  0.00000000E+00  0.00000000E+00
  0.00000000E+00  0.00000000E+00  0.00000000E+00
  0.00000000E+00  0.00000000E+00  0.00000000E+00
  0.00000000E+00  0.00000000E+00  0.00000000E+00
  0.00000000E+00  0.00000000E+00  0.00000000E+00
  0.00000000E+00  0.00000000E+00  0.00000000E+00
  0.00000000E+00  0.00000000E+00  0.00000000E+00
  0.00000000E+00  0.00000000E+00  0.00000000E+00
  0.00000000E+00  0.00000000E+00  0.00000000E+00
  0.00000000E+00  0.00000000E+00  0.00000000E+00
  0.00000000E+00  0.00000000E+00  0.00000000E+00
  0.00000000E+00  0.00000000E+00  0.00000000E+00
  0.00000000E+00  0.00000000E+00  0.00000000E+00
  0.00000000E+00  0.00000000E+00  0.00000000E+00
  0.00000000E+00  0.00000000E+00  0.00000000E+00
  0.00000000E+00  0.00000000E+00  0.00000000E+00
