Co C O H                                
   2.47000000000000     
     3.4655869999999998    0.0000000000000000    0.0000000000000000
     0.0000000000000000    3.2469629999999996    0.0000000000000000
     0.0000000000000000    0.0000000000000000    9.0000000000000000
   Co   C    O    H 
    32     3     1     7
Selective dynamics
Direct
  0.4999989900700825  0.4999995380298472  0.0000000000000000   F   F   F
  0.6667066791282394  0.7499993070447672  0.0000000000000000   F   F   F
  0.4999989900700825  0.0000000000000000  0.0000000000000000   F   F   F
  0.6667066791282394  0.2500000769950290  0.0000000000000000   F   F   F
  0.0000000000000000  0.4999995380298472  0.0000000000000000   F   F   F
  0.1667056691983220  0.7499993070447672  0.0000000000000000   F   F   F
  0.0000000000000000  0.0000000000000000  0.0000000000000000   F   F   F
  0.1667056691983220  0.2500000769950290  0.0000000000000000   F   F   F
  0.7499999278621488  0.4999995380298472  0.0555555555555571   F   F   F
  0.9167047314062557  0.7499993070447672  0.0555555555555571   F   F   F
  0.7499999278621488  0.0000000000000000  0.0555555555555571   F   F   F
  0.9167047314062557  0.2500000769950290  0.0555555555555571   F   F   F
  0.2500000721378512  0.4999995380298472  0.0555555555555571   F   F   F
  0.4167057413361732  0.7499993070447672  0.0555555555555571   F   F   F
  0.2500000721378512  0.0000000000000000  0.0555555555555571   F   F   F
  0.4167057413361732  0.2500000769950290  0.0555555555555571   F   F   F
  0.5003586728895189  0.4994403963622184  0.1124098576406083   T   T   T
  0.6645032367527953  0.7506038278196315  0.1126028822608484   T   T   T
  0.4996447285852852  0.0013984801059737  0.1115029915463534   T   T   T
  0.6634556400537507  0.2493954257651451  0.1127016601440112   T   T   T
  0.0019781263430947  0.4988872572384198  0.1126659310972682   T   T   T
  0.1643776543604309  0.7516036180105696  0.1125163423272302   T   T   T
  0.0048165281331416  0.0008975102628416  0.1124800543465511   T   T   T
  0.1684402143205813  0.2476580499834578  0.1124321769797472   T   T   T
  0.7560527723212686  0.5002176872088669  0.1629627038116979   T   T   T
  0.9105479802024972  0.7497804898212832  0.1630498629631419   T   T   T
  0.7590707614345706  0.9991932414642121  0.1618400518737637   T   T   T
  0.9086327307084919  0.2497722160380879  0.1627594274266015   T   T   T
  0.2535484918484985  0.5011381932496859  0.1624853044869659   T   T   T
  0.4093883575752596  0.7499977725030360  0.1625691634947868   T   T   T
  0.2548721267683473  0.9963113716256028  0.1670269828159462   T   T   T
  0.4114655446011197  0.2558130793136572  0.1666475274060166   T   T   T
  0.1771878834021683  0.0756768140523632  0.2852116163888880   T   T   T
  0.3248046448006435  0.0251381851851381  0.2520140639218309   T   T   T
  0.4079883106785787  0.8818424370583774  0.2827010050183693   T   T   T
  0.4291052904962412  0.1732927894777415  0.2542506359319220   T   T   T
  0.0896530598032715  0.9758483771574848  0.2820801824970273   T   T   T
  0.1260200257081834  0.1895896049586688  0.2660220936850353   T   T   T
  0.2040933107931974  0.0985223615370657  0.3332094706866736   T   T   T
  0.5377743639475681  0.1336389514559569  0.2526441823423936   T   T   T
  0.5180023892037429  0.8484534254776814  0.2594574902129253   T   T   T
  0.4375062827609782  0.9145990693773286  0.3298075999773065   T   T   T
  0.3324494156724385  0.7708790906967856  0.2836198884032642   T   T   T
 
  0.00000000E+00  0.00000000E+00  0.00000000E+00
  0.00000000E+00  0.00000000E+00  0.00000000E+00
  0.00000000E+00  0.00000000E+00  0.00000000E+00
  0.00000000E+00  0.00000000E+00  0.00000000E+00
  0.00000000E+00  0.00000000E+00  0.00000000E+00
  0.00000000E+00  0.00000000E+00  0.00000000E+00
  0.00000000E+00  0.00000000E+00  0.00000000E+00
  0.00000000E+00  0.00000000E+00  0.00000000E+00
  0.00000000E+00  0.00000000E+00  0.00000000E+00
  0.00000000E+00  0.00000000E+00  0.00000000E+00
  0.00000000E+00  0.00000000E+00  0.00000000E+00
  0.00000000E+00  0.00000000E+00  0.00000000E+00
  0.00000000E+00  0.00000000E+00  0.00000000E+00
  0.00000000E+00  0.00000000E+00  0.00000000E+00
  0.00000000E+00  0.00000000E+00  0.00000000E+00
  0.00000000E+00  0.00000000E+00  0.00000000E+00
  0.00000000E+00  0.00000000E+00  0.00000000E+00
  0.00000000E+00  0.00000000E+00  0.00000000E+00
  0.00000000E+00  0.00000000E+00  0.00000000E+00
  0.00000000E+00  0.00000000E+00  0.00000000E+00
  0.00000000E+00  0.00000000E+00  0.00000000E+00
  0.00000000E+00  0.00000000E+00  0.00000000E+00
  0.00000000E+00  0.00000000E+00  0.00000000E+00
  0.00000000E+00  0.00000000E+00  0.00000000E+00
  0.00000000E+00  0.00000000E+00  0.00000000E+00
  0.00000000E+00  0.00000000E+00  0.00000000E+00
  0.00000000E+00  0.00000000E+00  0.00000000E+00
  0.00000000E+00  0.00000000E+00  0.00000000E+00
  0.00000000E+00  0.00000000E+00  0.00000000E+00
  0.00000000E+00  0.00000000E+00  0.00000000E+00
  0.00000000E+00  0.00000000E+00  0.00000000E+00
  0.00000000E+00  0.00000000E+00  0.00000000E+00
  0.00000000E+00  0.00000000E+00  0.00000000E+00
  0.00000000E+00  0.00000000E+00  0.00000000E+00
  0.00000000E+00  0.00000000E+00  0.00000000E+00
  0.00000000E+00  0.00000000E+00  0.00000000E+00
  0.00000000E+00  0.00000000E+00  0.00000000E+00
  0.00000000E+00  0.00000000E+00  0.00000000E+00
  0.00000000E+00  0.00000000E+00  0.00000000E+00
  0.00000000E+00  0.00000000E+00  0.00000000E+00
  0.00000000E+00  0.00000000E+00  0.00000000E+00
  0.00000000E+00  0.00000000E+00  0.00000000E+00
  0.00000000E+00  0.00000000E+00  0.00000000E+00
