Co C O H                                
   2.47000000000000     
     3.4655869999999998    0.0000000000000000    0.0000000000000000
     0.0000000000000000    3.2469629999999996    0.0000000000000000
     0.0000000000000000    0.0000000000000000    9.0000000000000000
   Co   C    O    H 
    32     3     1     7
Selective dynamics
Direct
  0.4999989900700825  0.4999995380298472  0.0000000000000000   F   F   F
  0.6667066791282394  0.7499993070447672  0.0000000000000000   F   F   F
  0.4999989900700825  0.0000000000000000  0.0000000000000000   F   F   F
  0.6667066791282394  0.2500000769950290  0.0000000000000000   F   F   F
  0.0000000000000000  0.4999995380298472  0.0000000000000000   F   F   F
  0.1667056691983220  0.7499993070447672  0.0000000000000000   F   F   F
  0.0000000000000000  0.0000000000000000  0.0000000000000000   F   F   F
  0.1667056691983220  0.2500000769950290  0.0000000000000000   F   F   F
  0.7499999278621488  0.4999995380298472  0.0555555555555571   F   F   F
  0.9167047314062557  0.7499993070447672  0.0555555555555571   F   F   F
  0.7499999278621488  0.0000000000000000  0.0555555555555571   F   F   F
  0.9167047314062557  0.2500000769950290  0.0555555555555571   F   F   F
  0.2500000721378512  0.4999995380298472  0.0555555555555571   F   F   F
  0.4167057413361732  0.7499993070447672  0.0555555555555571   F   F   F
  0.2500000721378512  0.0000000000000000  0.0555555555555571   F   F   F
  0.4167057413361732  0.2500000769950290  0.0555555555555571   F   F   F
  0.5016401854068846  0.4983575126537616  0.1121270842129789   T   T   T
  0.6652550098234116  0.7500429233584924  0.1125742594362436   T   T   T
  0.5010229847622512  0.9990528886147771  0.1098233723406281   T   T   T
  0.6625487357981754  0.2493830550972049  0.1121326974497521   T   T   T
  0.0017558959440294  0.4998502399496019  0.1126438509633019   T   T   T
  0.1647304981591304  0.7524336192892349  0.1124879519067292   T   T   T
  0.0037558069116841  0.0004560807461473  0.1125092340159242   T   T   T
  0.1664565942966689  0.2501739297726502  0.1105735650288224   T   T   T
  0.7558837408514094  0.4996276838758860  0.1629328452594692   T   T   T
  0.9103633748196458  0.7498537312984439  0.1630592068855208   T   T   T
  0.7576791597552344  0.9996794709616950  0.1624868716139432   T   T   T
  0.9090673287643298  0.2500624525630784  0.1624160657102536   T   T   T
  0.2557100685179989  0.5002046271473972  0.1621322667574816   T   T   T
  0.4108109463247871  0.7480118076398057  0.1617157308683090   T   T   T
  0.2532256472738226  0.9976401029076456  0.1664363349821798   T   T   T
  0.4135063147153346  0.2527959754669737  0.1662010198215995   T   T   T
  0.3876113740902838  0.9111606297031898  0.3107668238098285   T   T   T
  0.4631667090837652  0.0493318291829254  0.2743335872934765   T   T   T
  0.5252052990356972  0.1920580126170393  0.3122571606396605   T   T   T
  0.3506833949722008  0.1144044097407289  0.2325628336460568   T   T   T
  0.3454650022163790  0.8114522663477004  0.2805623471352874   T   T   T
  0.2867522998183247  0.9599360588304293  0.3359130774917816   T   T   T
  0.4715738323469836  0.8564579966445294  0.3425755553865528   T   T   T
  0.5616791444751641  0.9950364654148274  0.2477293814824719   T   T   T
  0.4293518623817505  0.2507753471062273  0.3375035923852536   T   T   T
  0.6138113787872044  0.1471214112179595  0.3441914289734740   T   T   T
  0.5794155876673841  0.2866685291430002  0.2821586787744235   T   T   T
 
  0.00000000E+00  0.00000000E+00  0.00000000E+00
  0.00000000E+00  0.00000000E+00  0.00000000E+00
  0.00000000E+00  0.00000000E+00  0.00000000E+00
  0.00000000E+00  0.00000000E+00  0.00000000E+00
  0.00000000E+00  0.00000000E+00  0.00000000E+00
  0.00000000E+00  0.00000000E+00  0.00000000E+00
  0.00000000E+00  0.00000000E+00  0.00000000E+00
  0.00000000E+00  0.00000000E+00  0.00000000E+00
  0.00000000E+00  0.00000000E+00  0.00000000E+00
  0.00000000E+00  0.00000000E+00  0.00000000E+00
  0.00000000E+00  0.00000000E+00  0.00000000E+00
  0.00000000E+00  0.00000000E+00  0.00000000E+00
  0.00000000E+00  0.00000000E+00  0.00000000E+00
  0.00000000E+00  0.00000000E+00  0.00000000E+00
  0.00000000E+00  0.00000000E+00  0.00000000E+00
  0.00000000E+00  0.00000000E+00  0.00000000E+00
  0.00000000E+00  0.00000000E+00  0.00000000E+00
  0.00000000E+00  0.00000000E+00  0.00000000E+00
  0.00000000E+00  0.00000000E+00  0.00000000E+00
  0.00000000E+00  0.00000000E+00  0.00000000E+00
  0.00000000E+00  0.00000000E+00  0.00000000E+00
  0.00000000E+00  0.00000000E+00  0.00000000E+00
  0.00000000E+00  0.00000000E+00  0.00000000E+00
  0.00000000E+00  0.00000000E+00  0.00000000E+00
  0.00000000E+00  0.00000000E+00  0.00000000E+00
  0.00000000E+00  0.00000000E+00  0.00000000E+00
  0.00000000E+00  0.00000000E+00  0.00000000E+00
  0.00000000E+00  0.00000000E+00  0.00000000E+00
  0.00000000E+00  0.00000000E+00  0.00000000E+00
  0.00000000E+00  0.00000000E+00  0.00000000E+00
  0.00000000E+00  0.00000000E+00  0.00000000E+00
  0.00000000E+00  0.00000000E+00  0.00000000E+00
  0.00000000E+00  0.00000000E+00  0.00000000E+00
  0.00000000E+00  0.00000000E+00  0.00000000E+00
  0.00000000E+00  0.00000000E+00  0.00000000E+00
  0.00000000E+00  0.00000000E+00  0.00000000E+00
  0.00000000E+00  0.00000000E+00  0.00000000E+00
  0.00000000E+00  0.00000000E+00  0.00000000E+00
  0.00000000E+00  0.00000000E+00  0.00000000E+00
  0.00000000E+00  0.00000000E+00  0.00000000E+00
  0.00000000E+00  0.00000000E+00  0.00000000E+00
  0.00000000E+00  0.00000000E+00  0.00000000E+00
  0.00000000E+00  0.00000000E+00  0.00000000E+00
