Co C O H                                
   2.47000000000000     
     3.0000000000000000    0.0000000000000000    0.0000000000000000
    -1.5000000000000000    2.5980769230999998    0.0000000000000000
     0.0000000000000000    0.0000000000000000   10.0000000000000000
   Co   C    O    H 
    36     3     1     8
Selective dynamics
Direct
  0.2222223735499611  0.1111114137665936  0.0000000000000000   F   F   F
  0.5555557068832968  0.1111114137665936  0.0000000000000000   F   F   F
  0.8888890402166325  0.1111114137665936  0.0000000000000000   F   F   F
  0.2222220577330347  0.4444441154660765  0.0000000000000000   F   F   F
  0.5555553910663704  0.4444441154660765  0.0000000000000000   F   F   F
  0.8888887243997061  0.4444441154660765  0.0000000000000000   F   F   F
  0.5555543054492986  0.7777752775652615  0.0000000000000000   F   F   F
  0.8888876387826272  0.7777752775652615  0.0000000000000000   F   F   F
  0.2222209721159629  0.7777752775652615  0.0000000000000000   F   F   F
  0.0000000000000000  0.0000000000000000  0.0816498000000010   F   F   F
  0.3333333333333357  0.0000000000000000  0.0816498000000010   F   F   F
  0.6666666666666643  0.0000000000000000  0.0816498000000010   F   F   F
  0.3333330175164093  0.3333327016994829  0.0816498000000010   F   F   F
  0.6666663508497379  0.3333327016994829  0.0816498000000010   F   F   F
  0.9999996841830736  0.3333327016994829  0.0816498000000010   F   F   F
  0.3333330865995592  0.6666661731991113  0.0816498000000010   F   F   F
  0.6666664199328878  0.6666661731991113  0.0816498000000010   F   F   F
  0.9999997532662235  0.6666661731991113  0.0816498000000010   F   F   F
  0.2238295278299702  0.1153130535473963  0.1643049442305369   T   T   T
  0.5575889057805625  0.1151845954025177  0.1643823450030624   T   T   T
  0.8891895331021757  0.1129176873737521  0.1638062531439246   T   T   T
  0.2232360560682878  0.4448292195104102  0.1645215954707595   T   T   T
  0.5562789933743062  0.4442645316383107  0.1653438742429572   T   T   T
  0.8862635370249663  0.4446451635903799  0.1645033526595299   T   T   T
  0.5559637321028035  0.7796690746970114  0.1640776691992940   T   T   T
  0.8900425188432308  0.7794787514006600  0.1637640484092699   T   T   T
  0.2222028493629935  0.7782051956827587  0.1635555650339953   T   T   T
  0.9992251392221192  0.0003919999773245  0.2416059036958345   T   T   T
  0.3296649941698604  0.9938691977574123  0.2411121893198285   T   T   T
  0.6666196210968707  0.0002651222162200  0.2429756218234189   T   T   T
  0.3332340056594632  0.3362107516358748  0.2454369744157390   T   T   T
  0.6663610355700627  0.3334738487423863  0.2481354847950428   T   T   T
  0.9989278925072398  0.3333072551249998  0.2422564585764633   T   T   T
  0.3329656000072418  0.6680526342937938  0.2423241496839381   T   T   T
  0.6698181557473859  0.6729715454790863  0.2416468007187333   T   T   T
  0.0010386991558562  0.6688560376583368  0.2417794220518417   T   T   T
  0.5749838057468253  0.2998384937454261  0.3370302783550301   T   T   T
  0.5500547623954475  0.1287690634872618  0.3755264448867663   T   T   T
  0.7381626894597417  0.5115387002630030  0.3577029558652640   T   T   T
  0.3807671652435189  0.3005587069924829  0.3331349879948178   T   T   T
  0.2655602823966845  0.1548046465058164  0.3325784180747107   T   T   T
  0.6961443275614698  0.1244915057857554  0.3772527038205453   T   T   T
  0.5126516744922895  0.1600465230186146  0.4164769820282501   T   T   T
  0.4264097179119801  0.9741382043140447  0.3620024782328670   T   T   T
  0.5791376127410643  0.1525057103685867  0.2905736637604619   T   T   T
  0.8945107795658913  0.5303022636632093  0.3546011259847077   T   T   T
  0.7052684620644740  0.5258505995153726  0.4007697624790794   T   T   T
  0.7382261269239123  0.6398433355726212  0.3342693540350961   T   T   T
 
  0.00000000E+00  0.00000000E+00  0.00000000E+00
  0.00000000E+00  0.00000000E+00  0.00000000E+00
  0.00000000E+00  0.00000000E+00  0.00000000E+00
  0.00000000E+00  0.00000000E+00  0.00000000E+00
  0.00000000E+00  0.00000000E+00  0.00000000E+00
  0.00000000E+00  0.00000000E+00  0.00000000E+00
  0.00000000E+00  0.00000000E+00  0.00000000E+00
  0.00000000E+00  0.00000000E+00  0.00000000E+00
  0.00000000E+00  0.00000000E+00  0.00000000E+00
  0.00000000E+00  0.00000000E+00  0.00000000E+00
  0.00000000E+00  0.00000000E+00  0.00000000E+00
  0.00000000E+00  0.00000000E+00  0.00000000E+00
  0.00000000E+00  0.00000000E+00  0.00000000E+00
  0.00000000E+00  0.00000000E+00  0.00000000E+00
  0.00000000E+00  0.00000000E+00  0.00000000E+00
  0.00000000E+00  0.00000000E+00  0.00000000E+00
  0.00000000E+00  0.00000000E+00  0.00000000E+00
  0.00000000E+00  0.00000000E+00  0.00000000E+00
  0.00000000E+00  0.00000000E+00  0.00000000E+00
  0.00000000E+00  0.00000000E+00  0.00000000E+00
  0.00000000E+00  0.00000000E+00  0.00000000E+00
  0.00000000E+00  0.00000000E+00  0.00000000E+00
  0.00000000E+00  0.00000000E+00  0.00000000E+00
  0.00000000E+00  0.00000000E+00  0.00000000E+00
  0.00000000E+00  0.00000000E+00  0.00000000E+00
  0.00000000E+00  0.00000000E+00  0.00000000E+00
  0.00000000E+00  0.00000000E+00  0.00000000E+00
  0.00000000E+00  0.00000000E+00  0.00000000E+00
  0.00000000E+00  0.00000000E+00  0.00000000E+00
  0.00000000E+00  0.00000000E+00  0.00000000E+00
  0.00000000E+00  0.00000000E+00  0.00000000E+00
  0.00000000E+00  0.00000000E+00  0.00000000E+00
  0.00000000E+00  0.00000000E+00  0.00000000E+00
  0.00000000E+00  0.00000000E+00  0.00000000E+00
  0.00000000E+00  0.00000000E+00  0.00000000E+00
  0.00000000E+00  0.00000000E+00  0.00000000E+00
  0.00000000E+00  0.00000000E+00  0.00000000E+00
  0.00000000E+00  0.00000000E+00  0.00000000E+00
  0.00000000E+00  0.00000000E+00  0.00000000E+00
  0.00000000E+00  0.00000000E+00  0.00000000E+00
  0.00000000E+00  0.00000000E+00  0.00000000E+00
  0.00000000E+00  0.00000000E+00  0.00000000E+00
  0.00000000E+00  0.00000000E+00  0.00000000E+00
  0.00000000E+00  0.00000000E+00  0.00000000E+00
  0.00000000E+00  0.00000000E+00  0.00000000E+00
  0.00000000E+00  0.00000000E+00  0.00000000E+00
  0.00000000E+00  0.00000000E+00  0.00000000E+00
  0.00000000E+00  0.00000000E+00  0.00000000E+00
