Co C O H                                
   2.47000000000000     
     3.4655869999999998    0.0000000000000000    0.0000000000000000
     0.0000000000000000    3.2469629999999996    0.0000000000000000
     0.0000000000000000    0.0000000000000000    9.0000000000000000
   Co   C    O    H 
    32     3     1     6
Selective dynamics
Direct
  0.4999989900700825  0.4999995380298472  0.0000000000000000   F   F   F
  0.6667066791282394  0.7499993070447672  0.0000000000000000   F   F   F
  0.4999989900700825  0.0000000000000000  0.0000000000000000   F   F   F
  0.6667066791282394  0.2500000769950290  0.0000000000000000   F   F   F
  0.0000000000000000  0.4999995380298472  0.0000000000000000   F   F   F
  0.1667056691983220  0.7499993070447672  0.0000000000000000   F   F   F
  0.0000000000000000  0.0000000000000000  0.0000000000000000   F   F   F
  0.1667056691983220  0.2500000769950290  0.0000000000000000   F   F   F
  0.7499999278621488  0.4999995380298472  0.0555555555555571   F   F   F
  0.9167047314062557  0.7499993070447672  0.0555555555555571   F   F   F
  0.7499999278621488  0.0000000000000000  0.0555555555555571   F   F   F
  0.9167047314062557  0.2500000769950290  0.0555555555555571   F   F   F
  0.2500000721378512  0.4999995380298472  0.0555555555555571   F   F   F
  0.4167057413361732  0.7499993070447672  0.0555555555555571   F   F   F
  0.2500000721378512  0.0000000000000000  0.0555555555555571   F   F   F
  0.4167057413361732  0.2500000769950290  0.0555555555555571   F   F   F
  0.5000442438479951  0.5001311358275728  0.1106380934982951   T   T   T
  0.6652943902804722  0.7496683814459217  0.1126782516303564   T   T   T
  0.5014852405091972  0.0015899794493777  0.1121668565467999   T   T   T
  0.6612978313808213  0.2505972184225911  0.1120311546008992   T   T   T
  0.0040801294083153  0.4998865954571059  0.1125663037321019   T   T   T
  0.1660693869740015  0.7486766228449468  0.1126186933719922   T   T   T
  0.0034142726637754  0.9997050914326309  0.1120643701377730   T   T   T
  0.1661093109751590  0.2500291325783479  0.1097569865838963   T   T   T
  0.7564507896458537  0.4999767666226802  0.1624324293463459   T   T   T
  0.9117490098112881  0.7501270091695744  0.1629374478715704   T   T   T
  0.7571173224540431  0.0000223300668196  0.1623723104280543   T   T   T
  0.9080641301905814  0.2498932609263633  0.1616439537210326   T   T   T
  0.2509791283270673  0.5016797487444080  0.1666707498015541   T   T   T
  0.4123030138213934  0.7506497029644237  0.1619609734286840   T   T   T
  0.2567455275096862  0.9993057531192093  0.1632337480579551   T   T   T
  0.4112804380346446  0.2458677235235811  0.1672291432222366   T   T   T
  0.4443361995323869  0.1405394153763737  0.2916748193095060   T   T   T
  0.3208858965874271  0.2194186554367832  0.2522443344376555   T   T   T
  0.1547643580595874  0.1828965380334253  0.2711621549097316   T   T   T
  0.3526548576397843  0.3799241439110688  0.2363614599557096   T   T   T
  0.4356456133936746  0.1926241083644982  0.3376256865922969   T   T   T
  0.5621751108514133  0.1657737177900671  0.2742868737932085   T   T   T
  0.4271215030067310  0.0049548828352997  0.2941480794623246   T   T   T
  0.0715861239053055  0.2585669515195832  0.2447603736994353   T   T   T
  0.1415530694565490  0.2176724582309859  0.3190762553558173   T   T   T
  0.1229075119651597  0.0504117555068149  0.2660128222808578   T   T   T
 
  0.00000000E+00  0.00000000E+00  0.00000000E+00
  0.00000000E+00  0.00000000E+00  0.00000000E+00
  0.00000000E+00  0.00000000E+00  0.00000000E+00
  0.00000000E+00  0.00000000E+00  0.00000000E+00
  0.00000000E+00  0.00000000E+00  0.00000000E+00
  0.00000000E+00  0.00000000E+00  0.00000000E+00
  0.00000000E+00  0.00000000E+00  0.00000000E+00
  0.00000000E+00  0.00000000E+00  0.00000000E+00
  0.00000000E+00  0.00000000E+00  0.00000000E+00
  0.00000000E+00  0.00000000E+00  0.00000000E+00
  0.00000000E+00  0.00000000E+00  0.00000000E+00
  0.00000000E+00  0.00000000E+00  0.00000000E+00
  0.00000000E+00  0.00000000E+00  0.00000000E+00
  0.00000000E+00  0.00000000E+00  0.00000000E+00
  0.00000000E+00  0.00000000E+00  0.00000000E+00
  0.00000000E+00  0.00000000E+00  0.00000000E+00
  0.00000000E+00  0.00000000E+00  0.00000000E+00
  0.00000000E+00  0.00000000E+00  0.00000000E+00
  0.00000000E+00  0.00000000E+00  0.00000000E+00
  0.00000000E+00  0.00000000E+00  0.00000000E+00
  0.00000000E+00  0.00000000E+00  0.00000000E+00
  0.00000000E+00  0.00000000E+00  0.00000000E+00
  0.00000000E+00  0.00000000E+00  0.00000000E+00
  0.00000000E+00  0.00000000E+00  0.00000000E+00
  0.00000000E+00  0.00000000E+00  0.00000000E+00
  0.00000000E+00  0.00000000E+00  0.00000000E+00
  0.00000000E+00  0.00000000E+00  0.00000000E+00
  0.00000000E+00  0.00000000E+00  0.00000000E+00
  0.00000000E+00  0.00000000E+00  0.00000000E+00
  0.00000000E+00  0.00000000E+00  0.00000000E+00
  0.00000000E+00  0.00000000E+00  0.00000000E+00
  0.00000000E+00  0.00000000E+00  0.00000000E+00
  0.00000000E+00  0.00000000E+00  0.00000000E+00
  0.00000000E+00  0.00000000E+00  0.00000000E+00
  0.00000000E+00  0.00000000E+00  0.00000000E+00
  0.00000000E+00  0.00000000E+00  0.00000000E+00
  0.00000000E+00  0.00000000E+00  0.00000000E+00
  0.00000000E+00  0.00000000E+00  0.00000000E+00
  0.00000000E+00  0.00000000E+00  0.00000000E+00
  0.00000000E+00  0.00000000E+00  0.00000000E+00
  0.00000000E+00  0.00000000E+00  0.00000000E+00
  0.00000000E+00  0.00000000E+00  0.00000000E+00
