CH3CH2OH                                
   1.00000000000000     
    20.0000000000000000    0.0000000000000000    0.0000000000000000
     0.0000000000000000   20.0000000000000000    0.0000000000000000
     0.0000000000000000    0.0000000000000000   20.0000000000000000
   C    O    H 
     3     1     8
Direct
  0.4528638303005650  0.4919241013778830  0.4574952840048780
  0.4944999180311171  0.4931847293886946  0.5212012215468036
  0.5689324158152829  0.4966191523955388  0.5069860946719871
  0.4790414509493814  0.5511010131949021  0.5612116530571640
  0.3990439022877297  0.4891285048627267  0.4688707561606620
  0.4656436804250532  0.4482035387692491  0.4265982883530128
  0.4620999981733505  0.5374972456697265  0.4280812832805623
  0.4309612716344020  0.5518436888820233  0.5687849956373299
  0.4839414816650773  0.4474679946018867  0.5507124889661270
  0.5851965592611563  0.4525543002631736  0.4784456561015134
  0.5803610499270064  0.5417665655908337  0.4777027193048085
  0.5974143915298740  0.4987092150033732  0.5529096089151627
 
  0.00000000E+00  0.00000000E+00  0.00000000E+00
  0.00000000E+00  0.00000000E+00  0.00000000E+00
  0.00000000E+00  0.00000000E+00  0.00000000E+00
  0.00000000E+00  0.00000000E+00  0.00000000E+00
  0.00000000E+00  0.00000000E+00  0.00000000E+00
  0.00000000E+00  0.00000000E+00  0.00000000E+00
  0.00000000E+00  0.00000000E+00  0.00000000E+00
  0.00000000E+00  0.00000000E+00  0.00000000E+00
  0.00000000E+00  0.00000000E+00  0.00000000E+00
  0.00000000E+00  0.00000000E+00  0.00000000E+00
  0.00000000E+00  0.00000000E+00  0.00000000E+00
  0.00000000E+00  0.00000000E+00  0.00000000E+00
