Co C O H                                
   2.47000000000000     
     3.0000000000000000    0.0000000000000000    0.0000000000000000
    -1.5000000000000000    2.5980769230999998    0.0000000000000000
     0.0000000000000000    0.0000000000000000   10.0000000000000000
   Co   C    O    H 
    36     3     1     8
Selective dynamics
Direct
  0.2222223735499611  0.1111114137665936  0.0000000000000000   F   F   F
  0.5555557068832968  0.1111114137665936  0.0000000000000000   F   F   F
  0.8888890402166325  0.1111114137665936  0.0000000000000000   F   F   F
  0.2222220577330347  0.4444441154660765  0.0000000000000000   F   F   F
  0.5555553910663704  0.4444441154660765  0.0000000000000000   F   F   F
  0.8888887243997061  0.4444441154660765  0.0000000000000000   F   F   F
  0.5555543054492986  0.7777752775652615  0.0000000000000000   F   F   F
  0.8888876387826272  0.7777752775652615  0.0000000000000000   F   F   F
  0.2222209721159629  0.7777752775652615  0.0000000000000000   F   F   F
  0.0000000000000000  0.0000000000000000  0.0816498000000010   F   F   F
  0.3333333333333357  0.0000000000000000  0.0816498000000010   F   F   F
  0.6666666666666643  0.0000000000000000  0.0816498000000010   F   F   F
  0.3333330175164093  0.3333327016994829  0.0816498000000010   F   F   F
  0.6666663508497379  0.3333327016994829  0.0816498000000010   F   F   F
  0.9999996841830736  0.3333327016994829  0.0816498000000010   F   F   F
  0.3333330865995592  0.6666661731991113  0.0816498000000010   F   F   F
  0.6666664199328878  0.6666661731991113  0.0816498000000010   F   F   F
  0.9999997532662235  0.6666661731991113  0.0816498000000010   F   F   F
  0.2199129620549911  0.1115518277052630  0.1648303778150435   T   T   T
  0.5558634821837529  0.1127578570117862  0.1640926558092417   T   T   T
  0.8898909690483237  0.1113600359371603  0.1648077987962395   T   T   T
  0.2221702487187969  0.4459205020640269  0.1641023252231761   T   T   T
  0.5560853157552188  0.4456620289969777  0.1638550753894421   T   T   T
  0.8884675940456859  0.4454748132707778  0.1640489938227390   T   T   T
  0.5554937150371941  0.7793844062755326  0.1639338391733034   T   T   T
  0.8905312577893056  0.7820766847112850  0.1648723384073207   T   T   T
  0.2223899000431828  0.7790778375099734  0.1640007940517094   T   T   T
  0.0008407220688937  0.0034982644910002  0.2464722000380917   T   T   T
  0.3352145615216529  0.0009981285239817  0.2421295302345925   T   T   T
  0.6644547752950132  0.0008244218240563  0.2423959125045627   T   T   T
  0.3361107400974035  0.3382871226356059  0.2420615893562612   T   T   T
  0.6669517244245924  0.3352446817215693  0.2427487694831569   T   T   T
  0.9999857248038495  0.3370124986757759  0.2423484520293044   T   T   T
  0.3334979320303617  0.6684915324938885  0.2427729204430662   T   T   T
  0.6645293025165060  0.6657218743686641  0.2418839276392859   T   T   T
  0.9990839210996398  0.6653174871234100  0.2420854769206429   T   T   T
  0.2834308786660742  0.2547605578877210  0.3791602772084417   T   T   T
  0.1734572521907438  0.0258653474102601  0.3651468461027960   T   T   T
  0.1113448539584354  0.8821676316530045  0.4136673650889193   T   T   T
  0.9863698682196613  0.9814236778325167  0.3346665870812799   T   T   T
  0.2740260741742517  0.9944084975996716  0.3378391476362097   T   T   T
  0.1860802635840599  0.2902350378307972  0.4057216878258956   T   T   T
  0.3183501083491933  0.3500292508880563  0.3420892292781872   T   T   T
  0.4320434047388915  0.2998766291578860  0.3994687267437200   T   T   T
  0.8923599556978488  0.8295355820232331  0.3339314979584458   T   T   T
  0.0318543211916449  0.7179376670906663  0.4006960334031717   T   T   T
  0.0068566258621630  0.9067366674436386  0.4404410919318025   T   T   T
  0.2504087148798035  0.9124144019820903  0.4368367599084237   T   T   T
 
  0.00000000E+00  0.00000000E+00  0.00000000E+00
  0.00000000E+00  0.00000000E+00  0.00000000E+00
  0.00000000E+00  0.00000000E+00  0.00000000E+00
  0.00000000E+00  0.00000000E+00  0.00000000E+00
  0.00000000E+00  0.00000000E+00  0.00000000E+00
  0.00000000E+00  0.00000000E+00  0.00000000E+00
  0.00000000E+00  0.00000000E+00  0.00000000E+00
  0.00000000E+00  0.00000000E+00  0.00000000E+00
  0.00000000E+00  0.00000000E+00  0.00000000E+00
  0.00000000E+00  0.00000000E+00  0.00000000E+00
  0.00000000E+00  0.00000000E+00  0.00000000E+00
  0.00000000E+00  0.00000000E+00  0.00000000E+00
  0.00000000E+00  0.00000000E+00  0.00000000E+00
  0.00000000E+00  0.00000000E+00  0.00000000E+00
  0.00000000E+00  0.00000000E+00  0.00000000E+00
  0.00000000E+00  0.00000000E+00  0.00000000E+00
  0.00000000E+00  0.00000000E+00  0.00000000E+00
  0.00000000E+00  0.00000000E+00  0.00000000E+00
  0.00000000E+00  0.00000000E+00  0.00000000E+00
  0.00000000E+00  0.00000000E+00  0.00000000E+00
  0.00000000E+00  0.00000000E+00  0.00000000E+00
  0.00000000E+00  0.00000000E+00  0.00000000E+00
  0.00000000E+00  0.00000000E+00  0.00000000E+00
  0.00000000E+00  0.00000000E+00  0.00000000E+00
  0.00000000E+00  0.00000000E+00  0.00000000E+00
  0.00000000E+00  0.00000000E+00  0.00000000E+00
  0.00000000E+00  0.00000000E+00  0.00000000E+00
  0.00000000E+00  0.00000000E+00  0.00000000E+00
  0.00000000E+00  0.00000000E+00  0.00000000E+00
  0.00000000E+00  0.00000000E+00  0.00000000E+00
  0.00000000E+00  0.00000000E+00  0.00000000E+00
  0.00000000E+00  0.00000000E+00  0.00000000E+00
  0.00000000E+00  0.00000000E+00  0.00000000E+00
  0.00000000E+00  0.00000000E+00  0.00000000E+00
  0.00000000E+00  0.00000000E+00  0.00000000E+00
  0.00000000E+00  0.00000000E+00  0.00000000E+00
  0.00000000E+00  0.00000000E+00  0.00000000E+00
  0.00000000E+00  0.00000000E+00  0.00000000E+00
  0.00000000E+00  0.00000000E+00  0.00000000E+00
  0.00000000E+00  0.00000000E+00  0.00000000E+00
  0.00000000E+00  0.00000000E+00  0.00000000E+00
  0.00000000E+00  0.00000000E+00  0.00000000E+00
  0.00000000E+00  0.00000000E+00  0.00000000E+00
  0.00000000E+00  0.00000000E+00  0.00000000E+00
  0.00000000E+00  0.00000000E+00  0.00000000E+00
  0.00000000E+00  0.00000000E+00  0.00000000E+00
  0.00000000E+00  0.00000000E+00  0.00000000E+00
  0.00000000E+00  0.00000000E+00  0.00000000E+00
