Co C O H                                
   2.47000000000000     
     3.4655869999999998    0.0000000000000000    0.0000000000000000
     0.0000000000000000    3.2469629999999996    0.0000000000000000
     0.0000000000000000    0.0000000000000000    9.0000000000000000
   Co   C    O    H 
    32     3     1     8
Selective dynamics
Direct
  0.4999989900700825  0.4999995380298472  0.0000000000000000   F   F   F
  0.6667066791282394  0.7499993070447672  0.0000000000000000   F   F   F
  0.4999989900700825  0.0000000000000000  0.0000000000000000   F   F   F
  0.6667066791282394  0.2500000769950290  0.0000000000000000   F   F   F
  0.0000000000000000  0.4999995380298472  0.0000000000000000   F   F   F
  0.1667056691983220  0.7499993070447672  0.0000000000000000   F   F   F
  0.0000000000000000  0.0000000000000000  0.0000000000000000   F   F   F
  0.1667056691983220  0.2500000769950290  0.0000000000000000   F   F   F
  0.7499999278621488  0.4999995380298472  0.0555555555555571   F   F   F
  0.9167047314062557  0.7499993070447672  0.0555555555555571   F   F   F
  0.7499999278621488  0.0000000000000000  0.0555555555555571   F   F   F
  0.9167047314062557  0.2500000769950290  0.0555555555555571   F   F   F
  0.2500000721378512  0.4999995380298472  0.0555555555555571   F   F   F
  0.4167057413361732  0.7499993070447672  0.0555555555555571   F   F   F
  0.2500000721378512  0.0000000000000000  0.0555555555555571   F   F   F
  0.4167057413361732  0.2500000769950290  0.0555555555555571   F   F   F
  0.5017630117503273  0.4983231908310444  0.1126400207278238   T   T   T
  0.6645386500201553  0.7496822493752617  0.1125258079576454   T   T   T
  0.5024706481610366  0.0014605660599827  0.1124558204091244   T   T   T
  0.6664588364812332  0.2502721894529074  0.1123699065725035   T   T   T
  0.0011316361629099  0.4996301817415443  0.1125091530955871   T   T   T
  0.1650490468845760  0.7499458270233390  0.1126609607095261   T   T   T
  0.0014582192048849  0.0008984475492539  0.1120537391398813   T   T   T
  0.1645590723393084  0.2500037851997874  0.1124397116544245   T   T   T
  0.7544452419920731  0.5016440227263175  0.1628035972149533   T   T   T
  0.9106093656197416  0.7501908925164571  0.1625102259401530   T   T   T
  0.7542305466964905  0.9984237376664282  0.1621318970207213   T   T   T
  0.9071029431413891  0.2520521620771987  0.1661161027682567   T   T   T
  0.2581945005062352  0.5007914223395460  0.1628041224212140   T   T   T
  0.4120430487597062  0.7497133092462676  0.1632364388641889   T   T   T
  0.2601055602670073  0.9984408541966800  0.1623375434455951   T   T   T
  0.4077942002359478  0.2496795837834185  0.1633953066765557   T   T   T
  0.8402755695195339  0.0809811866365777  0.3108142608155546   T   T   T
  0.0036543243047475  0.0830393124087792  0.2852230832303846   T   T   T
  0.1331384482651998  0.0806069783109180  0.3315396639037331   T   T   T
  0.0162835429888304  0.2357008630853201  0.2494642911240277   T   T   T
  0.7534845747401704  0.0873276046878502  0.2740584765440914   T   T   T
  0.8212605303831140  0.1884146277057539  0.3406617462036508   T   T   T
  0.8200387809400667  0.9651829778873235  0.3360016252487554   T   T   T
  0.0179083606327168  0.9767236774407806  0.2537731236901735   T   T   T
  0.1244373077453531  0.2437690696496588  0.2329669672747485   T   T   T
  0.1245620883205305  0.1887969010220161  0.3617347397977184   T   T   T
  0.1262343283845127  0.9657894310054118  0.3584466258885968   T   T   T
  0.2480186738660777  0.0827800495894877  0.3082694851645170   T   T   T
 
  0.00000000E+00  0.00000000E+00  0.00000000E+00
  0.00000000E+00  0.00000000E+00  0.00000000E+00
  0.00000000E+00  0.00000000E+00  0.00000000E+00
  0.00000000E+00  0.00000000E+00  0.00000000E+00
  0.00000000E+00  0.00000000E+00  0.00000000E+00
  0.00000000E+00  0.00000000E+00  0.00000000E+00
  0.00000000E+00  0.00000000E+00  0.00000000E+00
  0.00000000E+00  0.00000000E+00  0.00000000E+00
  0.00000000E+00  0.00000000E+00  0.00000000E+00
  0.00000000E+00  0.00000000E+00  0.00000000E+00
  0.00000000E+00  0.00000000E+00  0.00000000E+00
  0.00000000E+00  0.00000000E+00  0.00000000E+00
  0.00000000E+00  0.00000000E+00  0.00000000E+00
  0.00000000E+00  0.00000000E+00  0.00000000E+00
  0.00000000E+00  0.00000000E+00  0.00000000E+00
  0.00000000E+00  0.00000000E+00  0.00000000E+00
  0.00000000E+00  0.00000000E+00  0.00000000E+00
  0.00000000E+00  0.00000000E+00  0.00000000E+00
  0.00000000E+00  0.00000000E+00  0.00000000E+00
  0.00000000E+00  0.00000000E+00  0.00000000E+00
  0.00000000E+00  0.00000000E+00  0.00000000E+00
  0.00000000E+00  0.00000000E+00  0.00000000E+00
  0.00000000E+00  0.00000000E+00  0.00000000E+00
  0.00000000E+00  0.00000000E+00  0.00000000E+00
  0.00000000E+00  0.00000000E+00  0.00000000E+00
  0.00000000E+00  0.00000000E+00  0.00000000E+00
  0.00000000E+00  0.00000000E+00  0.00000000E+00
  0.00000000E+00  0.00000000E+00  0.00000000E+00
  0.00000000E+00  0.00000000E+00  0.00000000E+00
  0.00000000E+00  0.00000000E+00  0.00000000E+00
  0.00000000E+00  0.00000000E+00  0.00000000E+00
  0.00000000E+00  0.00000000E+00  0.00000000E+00
  0.00000000E+00  0.00000000E+00  0.00000000E+00
  0.00000000E+00  0.00000000E+00  0.00000000E+00
  0.00000000E+00  0.00000000E+00  0.00000000E+00
  0.00000000E+00  0.00000000E+00  0.00000000E+00
  0.00000000E+00  0.00000000E+00  0.00000000E+00
  0.00000000E+00  0.00000000E+00  0.00000000E+00
  0.00000000E+00  0.00000000E+00  0.00000000E+00
  0.00000000E+00  0.00000000E+00  0.00000000E+00
  0.00000000E+00  0.00000000E+00  0.00000000E+00
  0.00000000E+00  0.00000000E+00  0.00000000E+00
  0.00000000E+00  0.00000000E+00  0.00000000E+00
  0.00000000E+00  0.00000000E+00  0.00000000E+00
