Co H                                    
   2.47000000000000     
     3.4655869999999998    0.0000000000000000    0.0000000000000000
     0.0000000000000000    3.2469629999999996    0.0000000000000000
     0.0000000000000000    0.0000000000000000    9.0000000000000000
   Co   H 
    32     1
Selective dynamics
Direct
  0.4999989900700825  0.4999995380298472  0.0000000000000000   F   F   F
  0.6667066791282394  0.7499993070447672  0.0000000000000000   F   F   F
  0.4999989900700825  0.0000000000000000  0.0000000000000000   F   F   F
  0.6667066791282394  0.2500000769950290  0.0000000000000000   F   F   F
  0.0000000000000000  0.4999995380298472  0.0000000000000000   F   F   F
  0.1667056691983220  0.7499993070447672  0.0000000000000000   F   F   F
  0.0000000000000000  0.0000000000000000  0.0000000000000000   F   F   F
  0.1667056691983220  0.2500000769950290  0.0000000000000000   F   F   F
  0.7499999278621488  0.4999995380298472  0.0555555555555571   F   F   F
  0.9167047314062557  0.7499993070447672  0.0555555555555571   F   F   F
  0.7499999278621488  0.0000000000000000  0.0555555555555571   F   F   F
  0.9167047314062557  0.2500000769950290  0.0555555555555571   F   F   F
  0.2500000721378512  0.4999995380298472  0.0555555555555571   F   F   F
  0.4167057413361732  0.7499993070447672  0.0555555555555571   F   F   F
  0.2500000721378512  0.0000000000000000  0.0555555555555571   F   F   F
  0.4167057413361732  0.2500000769950290  0.0555555555555571   F   F   F
  0.1649824524810839  0.2492187088010667  0.1116556411378653   T   T   T
  0.0014752246879013  0.9998515008961917  0.1126793842292528   T   T   T
  0.1660143454750340  0.7487732844448516  0.1126840511190679   T   T   T
  0.0032226006203828  0.4999356908420651  0.1124444035806391   T   T   T
  0.6633511579565763  0.2496771021167703  0.1125133117225943   T   T   T
  0.5007704436818727  0.0009118088141093  0.1126803515914077   T   T   T
  0.6652889944362457  0.7500062871725461  0.1126847765975398   T   T   T
  0.5016478638344211  0.5003562441718543  0.1117425066457045   T   T   T
  0.4103202275000726  0.2527267479900530  0.1652075504526849   T   T   T
  0.2565062605276438  0.9997936738880782  0.1629850059653535   T   T   T
  0.4102516570235863  0.7495809039580692  0.1629737529782389   T   T   T
  0.2561431253930806  0.4967284321359884  0.1652376905259700   T   T   T
  0.9094367893089554  0.2497546670274033  0.1626668171619698   T   T   T
  0.7556117003951073  0.9998530729732948  0.1630122520013586   T   T   T
  0.9113455152738510  0.7498102910570879  0.1629854197074678   T   T   T
  0.7571482150406155  0.5000678710517974  0.1626555452912370   T   T   T
  0.3313874031870157  0.3732171235371098  0.2184263663365229   T   T   T
 
  0.00000000E+00  0.00000000E+00  0.00000000E+00
  0.00000000E+00  0.00000000E+00  0.00000000E+00
  0.00000000E+00  0.00000000E+00  0.00000000E+00
  0.00000000E+00  0.00000000E+00  0.00000000E+00
  0.00000000E+00  0.00000000E+00  0.00000000E+00
  0.00000000E+00  0.00000000E+00  0.00000000E+00
  0.00000000E+00  0.00000000E+00  0.00000000E+00
  0.00000000E+00  0.00000000E+00  0.00000000E+00
  0.00000000E+00  0.00000000E+00  0.00000000E+00
  0.00000000E+00  0.00000000E+00  0.00000000E+00
  0.00000000E+00  0.00000000E+00  0.00000000E+00
  0.00000000E+00  0.00000000E+00  0.00000000E+00
  0.00000000E+00  0.00000000E+00  0.00000000E+00
  0.00000000E+00  0.00000000E+00  0.00000000E+00
  0.00000000E+00  0.00000000E+00  0.00000000E+00
  0.00000000E+00  0.00000000E+00  0.00000000E+00
  0.00000000E+00  0.00000000E+00  0.00000000E+00
  0.00000000E+00  0.00000000E+00  0.00000000E+00
  0.00000000E+00  0.00000000E+00  0.00000000E+00
  0.00000000E+00  0.00000000E+00  0.00000000E+00
  0.00000000E+00  0.00000000E+00  0.00000000E+00
  0.00000000E+00  0.00000000E+00  0.00000000E+00
  0.00000000E+00  0.00000000E+00  0.00000000E+00
  0.00000000E+00  0.00000000E+00  0.00000000E+00
  0.00000000E+00  0.00000000E+00  0.00000000E+00
  0.00000000E+00  0.00000000E+00  0.00000000E+00
  0.00000000E+00  0.00000000E+00  0.00000000E+00
  0.00000000E+00  0.00000000E+00  0.00000000E+00
  0.00000000E+00  0.00000000E+00  0.00000000E+00
  0.00000000E+00  0.00000000E+00  0.00000000E+00
  0.00000000E+00  0.00000000E+00  0.00000000E+00
  0.00000000E+00  0.00000000E+00  0.00000000E+00
  0.00000000E+00  0.00000000E+00  0.00000000E+00
