Co C O H                                
   2.47000000000000     
     3.4655869999999998    0.0000000000000000    0.0000000000000000
     0.0000000000000000    3.2469629999999996    0.0000000000000000
     0.0000000000000000    0.0000000000000000    9.0000000000000000
   Co   C    O    H 
    32     3     1     8
Selective dynamics
Direct
  0.4999989900700825  0.4999995380298472  0.0000000000000000   F   F   F
  0.6667066791282394  0.7499993070447672  0.0000000000000000   F   F   F
  0.4999989900700825  0.0000000000000000  0.0000000000000000   F   F   F
  0.6667066791282394  0.2500000769950290  0.0000000000000000   F   F   F
  0.0000000000000000  0.4999995380298472  0.0000000000000000   F   F   F
  0.1667056691983220  0.7499993070447672  0.0000000000000000   F   F   F
  0.0000000000000000  0.0000000000000000  0.0000000000000000   F   F   F
  0.1667056691983220  0.2500000769950290  0.0000000000000000   F   F   F
  0.7499999278621488  0.4999995380298472  0.0555555555555571   F   F   F
  0.9167047314062557  0.7499993070447672  0.0555555555555571   F   F   F
  0.7499999278621488  0.0000000000000000  0.0555555555555571   F   F   F
  0.9167047314062557  0.2500000769950290  0.0555555555555571   F   F   F
  0.2500000721378512  0.4999995380298472  0.0555555555555571   F   F   F
  0.4167057413361732  0.7499993070447672  0.0555555555555571   F   F   F
  0.2500000721378512  0.0000000000000000  0.0555555555555571   F   F   F
  0.4167057413361732  0.2500000769950290  0.0555555555555571   F   F   F
  0.5013443290344455  0.5001869555478038  0.1117645513843968   T   T   T
  0.6642931477235621  0.7513417244189426  0.1125422159119509   T   T   T
  0.4996770610429664  0.0017632486808168  0.1120101169117618   T   T   T
  0.6642686287186592  0.2488332831751308  0.1128232552128665   T   T   T
  0.0014056553366686  0.4989346831318500  0.1125396712527689   T   T   T
  0.1629199192798865  0.7505332401361571  0.1113009569110091   T   T   T
  0.0055879536532473  0.0009518939340154  0.1118773575629959   T   T   T
  0.1677205261492460  0.2491252686341454  0.1118335236071033   T   T   T
  0.7559681062307533  0.5004593052747666  0.1628321613864543   T   T   T
  0.9112692938344438  0.7501109754183801  0.1630688474787050   T   T   T
  0.7589964504937967  0.9986631991740893  0.1620184960289777   T   T   T
  0.9092260466504882  0.2490746889826596  0.1626849171960956   T   T   T
  0.2531042248276520  0.5024791048061701  0.1623459142834989   T   T   T
  0.4095663956578974  0.7498705909727121  0.1616537731399958   T   T   T
  0.2508362186163495  0.9969430551524638  0.1688754367699943   T   T   T
  0.4125431400403556  0.2604108584206983  0.1652891496307092   T   T   T
  0.1655528701310516  0.1258608078365242  0.2814896816638992   T   T   T
  0.3157905875602083  0.0427222349330307  0.2616186076671170   T   T   T
  0.3758628679322271  0.9226887428316957  0.3092878766017719   T   T   T
  0.4325740567935199  0.1721153136400417  0.2526516932499518   T   T   T
  0.1789087191037950  0.1712179487256620  0.3282172994043719   T   T   T
  0.0685929050058220  0.0362848682080283  0.2800499084028374   T   T   T
  0.1357831382808570  0.2319451674885968  0.2523073820756920   T   T   T
  0.3322047457932271  0.8907826226292741  0.2178090813938383   T   T   T
  0.5351721283668596  0.1177684678710946  0.2471694074220068   T   T   T
  0.3938505635064047  0.9902345486709763  0.3519324101737453   T   T   T
  0.4866027285181431  0.8643540258243760  0.2953876079922111   T   T   T
  0.2901481649954291  0.8226942568030040  0.3156581843416587   T   T   T
 
  0.00000000E+00  0.00000000E+00  0.00000000E+00
  0.00000000E+00  0.00000000E+00  0.00000000E+00
  0.00000000E+00  0.00000000E+00  0.00000000E+00
  0.00000000E+00  0.00000000E+00  0.00000000E+00
  0.00000000E+00  0.00000000E+00  0.00000000E+00
  0.00000000E+00  0.00000000E+00  0.00000000E+00
  0.00000000E+00  0.00000000E+00  0.00000000E+00
  0.00000000E+00  0.00000000E+00  0.00000000E+00
  0.00000000E+00  0.00000000E+00  0.00000000E+00
  0.00000000E+00  0.00000000E+00  0.00000000E+00
  0.00000000E+00  0.00000000E+00  0.00000000E+00
  0.00000000E+00  0.00000000E+00  0.00000000E+00
  0.00000000E+00  0.00000000E+00  0.00000000E+00
  0.00000000E+00  0.00000000E+00  0.00000000E+00
  0.00000000E+00  0.00000000E+00  0.00000000E+00
  0.00000000E+00  0.00000000E+00  0.00000000E+00
  0.00000000E+00  0.00000000E+00  0.00000000E+00
  0.00000000E+00  0.00000000E+00  0.00000000E+00
  0.00000000E+00  0.00000000E+00  0.00000000E+00
  0.00000000E+00  0.00000000E+00  0.00000000E+00
  0.00000000E+00  0.00000000E+00  0.00000000E+00
  0.00000000E+00  0.00000000E+00  0.00000000E+00
  0.00000000E+00  0.00000000E+00  0.00000000E+00
  0.00000000E+00  0.00000000E+00  0.00000000E+00
  0.00000000E+00  0.00000000E+00  0.00000000E+00
  0.00000000E+00  0.00000000E+00  0.00000000E+00
  0.00000000E+00  0.00000000E+00  0.00000000E+00
  0.00000000E+00  0.00000000E+00  0.00000000E+00
  0.00000000E+00  0.00000000E+00  0.00000000E+00
  0.00000000E+00  0.00000000E+00  0.00000000E+00
  0.00000000E+00  0.00000000E+00  0.00000000E+00
  0.00000000E+00  0.00000000E+00  0.00000000E+00
  0.00000000E+00  0.00000000E+00  0.00000000E+00
  0.00000000E+00  0.00000000E+00  0.00000000E+00
  0.00000000E+00  0.00000000E+00  0.00000000E+00
  0.00000000E+00  0.00000000E+00  0.00000000E+00
  0.00000000E+00  0.00000000E+00  0.00000000E+00
  0.00000000E+00  0.00000000E+00  0.00000000E+00
  0.00000000E+00  0.00000000E+00  0.00000000E+00
  0.00000000E+00  0.00000000E+00  0.00000000E+00
  0.00000000E+00  0.00000000E+00  0.00000000E+00
  0.00000000E+00  0.00000000E+00  0.00000000E+00
  0.00000000E+00  0.00000000E+00  0.00000000E+00
  0.00000000E+00  0.00000000E+00  0.00000000E+00
