Co C O H                                
   2.47000000000000     
     3.4655869999999998    0.0000000000000000    0.0000000000000000
     0.0000000000000000    3.2469629999999996    0.0000000000000000
     0.0000000000000000    0.0000000000000000    9.0000000000000000
   Co   C    O    H 
    32     3     1     7
Selective dynamics
Direct
  0.4999989900700825  0.4999995380298472  0.0000000000000000   F   F   F
  0.6667066791282394  0.7499993070447672  0.0000000000000000   F   F   F
  0.4999989900700825  0.0000000000000000  0.0000000000000000   F   F   F
  0.6667066791282394  0.2500000769950290  0.0000000000000000   F   F   F
  0.0000000000000000  0.4999995380298472  0.0000000000000000   F   F   F
  0.1667056691983220  0.7499993070447672  0.0000000000000000   F   F   F
  0.0000000000000000  0.0000000000000000  0.0000000000000000   F   F   F
  0.1667056691983220  0.2500000769950290  0.0000000000000000   F   F   F
  0.7499999278621488  0.4999995380298472  0.0555555555555571   F   F   F
  0.9167047314062557  0.7499993070447672  0.0555555555555571   F   F   F
  0.7499999278621488  0.0000000000000000  0.0555555555555571   F   F   F
  0.9167047314062557  0.2500000769950290  0.0555555555555571   F   F   F
  0.2500000721378512  0.4999995380298472  0.0555555555555571   F   F   F
  0.4167057413361732  0.7499993070447672  0.0555555555555571   F   F   F
  0.2500000721378512  0.0000000000000000  0.0555555555555571   F   F   F
  0.4167057413361732  0.2500000769950290  0.0555555555555571   F   F   F
  0.5003586728895186  0.4994403963622176  0.1124098576406070   T   T   T
  0.6645032367527932  0.7506038278196314  0.1126028822608518   T   T   T
  0.4996447285852881  0.0013984801059763  0.1115029915463523   T   T   T
  0.6634556400537477  0.2493954257651438  0.1127016601440118   T   T   T
  0.0019781263430971  0.4988872572384224  0.1126659310972684   T   T   T
  0.1643776543604289  0.7516036180105701  0.1125163423272326   T   T   T
  0.0048165281331407  0.0008975102628384  0.1124800543465483   T   T   T
  0.1684402143205830  0.2476580499834569  0.1124321769797447   T   T   T
  0.7560527723212687  0.5002176872088668  0.1629627038117007   T   T   T
  0.9105479802024945  0.7497804898212834  0.1630498629631418   T   T   T
  0.7590707614345718  0.9991932414642122  0.1618400518737673   T   T   T
  0.9086327307084900  0.2497722160380889  0.1627594274266002   T   T   T
  0.2535484918484983  0.5011381932496874  0.1624853044869639   T   T   T
  0.4093883575752599  0.7499977725030362  0.1625691634947870   T   T   T
  0.2548721267683476  0.9963113716256018  0.1670269828159476   T   T   T
  0.4114655446011213  0.2558130793136542  0.1666475274060133   T   T   T
  0.1771878834021692  0.0756768140523647  0.2852116163888851   T   T   T
  0.3248046448006434  0.0251381851851349  0.2520140639218340   T   T   T
  0.4079883106785758  0.8818424370583742  0.2827010050183674   T   T   T
  0.4291052904962385  0.1732927894777418  0.2542506359319248   T   T   T
  0.0896530598032683  0.9758483771574831  0.2820801824970260   T   T   T
  0.1260200257081863  0.1895896049586696  0.2660220936850379   T   T   T
  0.2040933107931977  0.0985223615370643  0.3332094706866755   T   T   T
  0.5377743639475696  0.1336389514559571  0.2526441823423937   T   T   T
  0.5180023892037440  0.8484534254776790  0.2594574902129239   T   T   T
  0.4375062827609781  0.9145990693773314  0.3298075999773076   T   T   T
  0.3324494156724356  0.7708790906967877  0.2827202032930541   T   T   T
 
  0.00000000E+00  0.00000000E+00  0.00000000E+00
  0.00000000E+00  0.00000000E+00  0.00000000E+00
  0.00000000E+00  0.00000000E+00  0.00000000E+00
  0.00000000E+00  0.00000000E+00  0.00000000E+00
  0.00000000E+00  0.00000000E+00  0.00000000E+00
  0.00000000E+00  0.00000000E+00  0.00000000E+00
  0.00000000E+00  0.00000000E+00  0.00000000E+00
  0.00000000E+00  0.00000000E+00  0.00000000E+00
  0.00000000E+00  0.00000000E+00  0.00000000E+00
  0.00000000E+00  0.00000000E+00  0.00000000E+00
  0.00000000E+00  0.00000000E+00  0.00000000E+00
  0.00000000E+00  0.00000000E+00  0.00000000E+00
  0.00000000E+00  0.00000000E+00  0.00000000E+00
  0.00000000E+00  0.00000000E+00  0.00000000E+00
  0.00000000E+00  0.00000000E+00  0.00000000E+00
  0.00000000E+00  0.00000000E+00  0.00000000E+00
  0.00000000E+00  0.00000000E+00  0.00000000E+00
  0.00000000E+00  0.00000000E+00  0.00000000E+00
  0.00000000E+00  0.00000000E+00  0.00000000E+00
  0.00000000E+00  0.00000000E+00  0.00000000E+00
  0.00000000E+00  0.00000000E+00  0.00000000E+00
  0.00000000E+00  0.00000000E+00  0.00000000E+00
  0.00000000E+00  0.00000000E+00  0.00000000E+00
  0.00000000E+00  0.00000000E+00  0.00000000E+00
  0.00000000E+00  0.00000000E+00  0.00000000E+00
  0.00000000E+00  0.00000000E+00  0.00000000E+00
  0.00000000E+00  0.00000000E+00  0.00000000E+00
  0.00000000E+00  0.00000000E+00  0.00000000E+00
  0.00000000E+00  0.00000000E+00  0.00000000E+00
  0.00000000E+00  0.00000000E+00  0.00000000E+00
  0.00000000E+00  0.00000000E+00  0.00000000E+00
  0.00000000E+00  0.00000000E+00  0.00000000E+00
  0.00000000E+00  0.00000000E+00  0.00000000E+00
  0.00000000E+00  0.00000000E+00  0.00000000E+00
  0.00000000E+00  0.00000000E+00  0.00000000E+00
  0.00000000E+00  0.00000000E+00  0.00000000E+00
  0.00000000E+00  0.00000000E+00  0.00000000E+00
  0.00000000E+00  0.00000000E+00  0.00000000E+00
  0.00000000E+00  0.00000000E+00  0.00000000E+00
  0.00000000E+00  0.00000000E+00  0.00000000E+00
  0.00000000E+00  0.00000000E+00  0.00000000E+00
  0.00000000E+00  0.00000000E+00  0.00000000E+00
  0.00000000E+00  0.00000000E+00  0.00000000E+00
