Co C O H                                
   2.47000000000000     
     3.4655869999999998    0.0000000000000000    0.0000000000000000
     0.0000000000000000    3.2469629999999996    0.0000000000000000
     0.0000000000000000    0.0000000000000000    9.0000000000000000
   Co   C    O    H 
    32     3     1     8
Selective dynamics
Direct
  0.4999989900700825  0.4999995380298472  0.0000000000000000   F   F   F
  0.6667066791282394  0.7499993070447672  0.0000000000000000   F   F   F
  0.4999989900700825  0.0000000000000000  0.0000000000000000   F   F   F
  0.6667066791282394  0.2500000769950290  0.0000000000000000   F   F   F
  0.0000000000000000  0.4999995380298472  0.0000000000000000   F   F   F
  0.1667056691983220  0.7499993070447672  0.0000000000000000   F   F   F
  0.0000000000000000  0.0000000000000000  0.0000000000000000   F   F   F
  0.1667056691983220  0.2500000769950290  0.0000000000000000   F   F   F
  0.7499999278621488  0.4999995380298472  0.0555555555555571   F   F   F
  0.9167047314062557  0.7499993070447672  0.0555555555555571   F   F   F
  0.7499999278621488  0.0000000000000000  0.0555555555555571   F   F   F
  0.9167047314062557  0.2500000769950290  0.0555555555555571   F   F   F
  0.2500000721378512  0.4999995380298472  0.0555555555555571   F   F   F
  0.4167057413361732  0.7499993070447672  0.0555555555555571   F   F   F
  0.2500000721378512  0.0000000000000000  0.0555555555555571   F   F   F
  0.4167057413361732  0.2500000769950290  0.0555555555555571   F   F   F
  0.5017642610197584  0.4989617602217109  0.1123933757418456   T   T   T
  0.6661191268042472  0.7493589477327589  0.1123022280578141   T   T   T
  0.5019122161125011  0.9976261439895353  0.1108068865750056   T   T   T
  0.6639189978585165  0.2494083147952608  0.1124601259110563   T   T   T
  0.0022263155984135  0.5000833147551020  0.1131319504186834   T   T   T
  0.1660762190477953  0.7513523474072699  0.1125334919747587   T   T   T
  0.0010594130082850  0.0006526007479195  0.1116821234996621   T   T   T
  0.1669436857702351  0.2512043943637963  0.1115153876497885   T   T   T
  0.7569727022940498  0.4996511884068653  0.1630196664372789   T   T   T
  0.9119502878476098  0.7504274806692166  0.1632780717680546   T   T   T
  0.7565005546264558  0.9992488271907121  0.1631195929916700   T   T   T
  0.9100487318674126  0.2489299827957652  0.1627044387675554   T   T   T
  0.2570382158278974  0.5013941490400029  0.1626818409531623   T   T   T
  0.4140302241785250  0.7533724543989848  0.1629652325504054   T   T   T
  0.2431422703373087  0.9982506852258055  0.1645431048790726   T   T   T
  0.4132953207923791  0.2562209784905605  0.1659465309956687   T   T   T
  0.1895842481718759  0.1862546441676258  0.3024048870810816   T   T   T
  0.3455772416348495  0.0989939246626577  0.2956806969085832   T   T   T
  0.4786811873664121  0.1866881354318082  0.3276986941149787   T   T   T
  0.3860534642016376  0.0901410102613340  0.2320927512853288   T   T   T
  0.1546976884080991  0.1916416683948157  0.3499857976646084   T   T   T
  0.0980682150372800  0.1204040410377942  0.2769257740076796   T   T   T
  0.1972984226365853  0.3144911900021370  0.2848361347409849   T   T   T
  0.3360660153835724  0.9684834080883462  0.3109728946156309   T   T   T
  0.4326013264000395  0.9545297342627563  0.2057629674565362   T   T   T
  0.5894553598322148  0.1209887918040309  0.3198192441771042   T   T   T
  0.4567770551623411  0.1921309262283373  0.3764007157488578   T   T   T
  0.4902670140091132  0.3147940872501636  0.3104894577096928   T   T   T
 
             NaN             NaN             NaN
             NaN             NaN             NaN
             NaN             NaN             NaN
             NaN             NaN             NaN
             NaN             NaN             NaN
             NaN             NaN             NaN
             NaN             NaN             NaN
             NaN             NaN             NaN
             NaN             NaN             NaN
             NaN             NaN             NaN
             NaN             NaN             NaN
             NaN             NaN             NaN
             NaN             NaN             NaN
             NaN             NaN             NaN
             NaN             NaN             NaN
             NaN             NaN             NaN
             NaN             NaN             NaN
             NaN             NaN             NaN
             NaN             NaN             NaN
             NaN             NaN             NaN
             NaN             NaN             NaN
             NaN             NaN             NaN
             NaN             NaN             NaN
             NaN             NaN             NaN
             NaN             NaN             NaN
             NaN             NaN             NaN
             NaN             NaN             NaN
             NaN             NaN             NaN
             NaN             NaN             NaN
             NaN             NaN             NaN
             NaN             NaN             NaN
             NaN             NaN             NaN
             NaN             NaN             NaN
             NaN             NaN             NaN
             NaN             NaN             NaN
             NaN             NaN             NaN
             NaN             NaN             NaN
             NaN             NaN             NaN
             NaN             NaN             NaN
             NaN             NaN             NaN
             NaN             NaN             NaN
             NaN             NaN             NaN
             NaN             NaN             NaN
             NaN             NaN             NaN
