Co C O H                                
   2.47000000000000     
     3.0000000000000000    0.0000000000000000    0.0000000000000000
    -1.5000000000000000    2.5980769230999998    0.0000000000000000
     0.0000000000000000    0.0000000000000000   10.0000000000000000
   Co   C    O    H 
    36     3     1     7
Selective dynamics
Direct
  0.2222223735499611  0.1111114137665936  0.0000000000000000   F   F   F
  0.5555557068832968  0.1111114137665936  0.0000000000000000   F   F   F
  0.8888890402166325  0.1111114137665936  0.0000000000000000   F   F   F
  0.2222220577330347  0.4444441154660765  0.0000000000000000   F   F   F
  0.5555553910663704  0.4444441154660765  0.0000000000000000   F   F   F
  0.8888887243997061  0.4444441154660765  0.0000000000000000   F   F   F
  0.5555543054492986  0.7777752775652615  0.0000000000000000   F   F   F
  0.8888876387826272  0.7777752775652615  0.0000000000000000   F   F   F
  0.2222209721159629  0.7777752775652615  0.0000000000000000   F   F   F
  0.0000000000000000  0.0000000000000000  0.0816498000000010   F   F   F
  0.3333333333333357  0.0000000000000000  0.0816498000000010   F   F   F
  0.6666666666666643  0.0000000000000000  0.0816498000000010   F   F   F
  0.3333330175164093  0.3333327016994829  0.0816498000000010   F   F   F
  0.6666663508497379  0.3333327016994829  0.0816498000000010   F   F   F
  0.9999996841830736  0.3333327016994829  0.0816498000000010   F   F   F
  0.3333330865995592  0.6666661731991113  0.0816498000000010   F   F   F
  0.6666664199328878  0.6666661731991113  0.0816498000000010   F   F   F
  0.9999997532662235  0.6666661731991113  0.0816498000000010   F   F   F
  0.2220405596200834  0.1120800464621610  0.1644049290680840   T   T   T
  0.5547516141727371  0.1110062514786279  0.1640868044108288   T   T   T
  0.8889336455105195  0.1121994089884737  0.1644476571285480   T   T   T
  0.2212780565903856  0.4442148513534008  0.1651828124897889   T   T   T
  0.5535471495660786  0.4438558042887593  0.1643615610574827   T   T   T
  0.8889604717839674  0.4440028763312611  0.1644208690247666   T   T   T
  0.5536711212029957  0.7769924619175796  0.1644352148773294   T   T   T
  0.8882745908678800  0.7777337613714010  0.1636949700650945   T   T   T
  0.2222111142039864  0.7771306685478194  0.1644522366742436   T   T   T
  0.9973035250397047  0.9954750301009625  0.2422546770254783   T   T   T
  0.3336600604996534  0.0002039072130913  0.2424446997176588   T   T   T
  0.6656428788238955  0.0004572733931809  0.2422975382845038   T   T   T
  0.3362284659642114  0.3294495425483888  0.2452266900193365   T   T   T
  0.6656842109180090  0.3322452929077357  0.2422833231083317   T   T   T
  0.9927030252724336  0.3300132302808123  0.2455022069068491   T   T   T
  0.3365131857615040  0.6734786228610545  0.2454590784950597   T   T   T
  0.6705912633389417  0.6687020406242326  0.2422283174427946   T   T   T
  0.9974026052805414  0.6687526637093058  0.2422668809782280   T   T   T
  0.4482067482582508  0.5208245449009823  0.3772897429360569   T   T   T
  0.2262907466691075  0.4421409315148352  0.3585579766145131   T   T   T
  0.0748809940278221  0.2233585289912341  0.3779876293401188   T   T   T
  0.2228066457386859  0.4442406004921438  0.2997639575551432   T   T   T
  0.5534030845405837  0.6767186179650082  0.3605725721039406   T   T   T
  0.5020548878069135  0.4144314988561959  0.3633746378706704   T   T   T
  0.4570142407166315  0.5297687814815220  0.4217474255853233   T   T   T
  0.1731618347614301  0.5504815935449301  0.3715413092925033   T   T   T
  0.1236806946726645  0.1141845280211200  0.3630053081153832   T   T   T
  0.0705994553415366  0.2177029227699805  0.4224958227595081   T   T   T
  0.9170422752149889  0.1721623054474435  0.3619002868152232   T   T   T
 
  0.00000000E+00  0.00000000E+00  0.00000000E+00
  0.00000000E+00  0.00000000E+00  0.00000000E+00
  0.00000000E+00  0.00000000E+00  0.00000000E+00
  0.00000000E+00  0.00000000E+00  0.00000000E+00
  0.00000000E+00  0.00000000E+00  0.00000000E+00
  0.00000000E+00  0.00000000E+00  0.00000000E+00
  0.00000000E+00  0.00000000E+00  0.00000000E+00
  0.00000000E+00  0.00000000E+00  0.00000000E+00
  0.00000000E+00  0.00000000E+00  0.00000000E+00
  0.00000000E+00  0.00000000E+00  0.00000000E+00
  0.00000000E+00  0.00000000E+00  0.00000000E+00
  0.00000000E+00  0.00000000E+00  0.00000000E+00
  0.00000000E+00  0.00000000E+00  0.00000000E+00
  0.00000000E+00  0.00000000E+00  0.00000000E+00
  0.00000000E+00  0.00000000E+00  0.00000000E+00
  0.00000000E+00  0.00000000E+00  0.00000000E+00
  0.00000000E+00  0.00000000E+00  0.00000000E+00
  0.00000000E+00  0.00000000E+00  0.00000000E+00
  0.00000000E+00  0.00000000E+00  0.00000000E+00
  0.00000000E+00  0.00000000E+00  0.00000000E+00
  0.00000000E+00  0.00000000E+00  0.00000000E+00
  0.00000000E+00  0.00000000E+00  0.00000000E+00
  0.00000000E+00  0.00000000E+00  0.00000000E+00
  0.00000000E+00  0.00000000E+00  0.00000000E+00
  0.00000000E+00  0.00000000E+00  0.00000000E+00
  0.00000000E+00  0.00000000E+00  0.00000000E+00
  0.00000000E+00  0.00000000E+00  0.00000000E+00
  0.00000000E+00  0.00000000E+00  0.00000000E+00
  0.00000000E+00  0.00000000E+00  0.00000000E+00
  0.00000000E+00  0.00000000E+00  0.00000000E+00
  0.00000000E+00  0.00000000E+00  0.00000000E+00
  0.00000000E+00  0.00000000E+00  0.00000000E+00
  0.00000000E+00  0.00000000E+00  0.00000000E+00
  0.00000000E+00  0.00000000E+00  0.00000000E+00
  0.00000000E+00  0.00000000E+00  0.00000000E+00
  0.00000000E+00  0.00000000E+00  0.00000000E+00
  0.00000000E+00  0.00000000E+00  0.00000000E+00
  0.00000000E+00  0.00000000E+00  0.00000000E+00
  0.00000000E+00  0.00000000E+00  0.00000000E+00
  0.00000000E+00  0.00000000E+00  0.00000000E+00
  0.00000000E+00  0.00000000E+00  0.00000000E+00
  0.00000000E+00  0.00000000E+00  0.00000000E+00
  0.00000000E+00  0.00000000E+00  0.00000000E+00
  0.00000000E+00  0.00000000E+00  0.00000000E+00
  0.00000000E+00  0.00000000E+00  0.00000000E+00
  0.00000000E+00  0.00000000E+00  0.00000000E+00
  0.00000000E+00  0.00000000E+00  0.00000000E+00
