Co C O H                                
   2.47000000000000     
     3.0000000000000000    0.0000000000000000    0.0000000000000000
    -1.5000000000000000    2.5980769230999998    0.0000000000000000
     0.0000000000000000    0.0000000000000000   10.0000000000000000
   Co   C    O    H 
    36     3     1     7
Selective dynamics
Direct
  0.2222223735499611  0.1111114137665936  0.0000000000000000   F   F   F
  0.5555557068832968  0.1111114137665936  0.0000000000000000   F   F   F
  0.8888890402166325  0.1111114137665936  0.0000000000000000   F   F   F
  0.2222220577330347  0.4444441154660765  0.0000000000000000   F   F   F
  0.5555553910663704  0.4444441154660765  0.0000000000000000   F   F   F
  0.8888887243997061  0.4444441154660765  0.0000000000000000   F   F   F
  0.5555543054492986  0.7777752775652615  0.0000000000000000   F   F   F
  0.8888876387826272  0.7777752775652615  0.0000000000000000   F   F   F
  0.2222209721159629  0.7777752775652615  0.0000000000000000   F   F   F
  0.0000000000000000  0.0000000000000000  0.0816498000000010   F   F   F
  0.3333333333333357  0.0000000000000000  0.0816498000000010   F   F   F
  0.6666666666666643  0.0000000000000000  0.0816498000000010   F   F   F
  0.3333330175164093  0.3333327016994829  0.0816498000000010   F   F   F
  0.6666663508497379  0.3333327016994829  0.0816498000000010   F   F   F
  0.9999996841830736  0.3333327016994829  0.0816498000000010   F   F   F
  0.3333330865995592  0.6666661731991113  0.0816498000000010   F   F   F
  0.6666664199328878  0.6666661731991113  0.0816498000000010   F   F   F
  0.9999997532662235  0.6666661731991113  0.0816498000000010   F   F   F
  0.2248609814138121  0.1137920674194461  0.1643356669092029   T   T   T
  0.5564344515732387  0.1128240969282572  0.1641964536494029   T   T   T
  0.8902042673145445  0.1117478380739456  0.1637344003107160   T   T   T
  0.2247065034810376  0.4439271956034574  0.1639650818322309   T   T   T
  0.5552925217995224  0.4431162178716974  0.1651705240726784   T   T   T
  0.8877822454095536  0.4436624439522845  0.1644716415504845   T   T   T
  0.5556931393525204  0.7783204659094025  0.1635076047899631   T   T   T
  0.8905097162641127  0.7783197536434017  0.1638423871557748   T   T   T
  0.2225740663345235  0.7772213838973627  0.1639684997656943   T   T   T
  0.0020955528856135  0.0027172243730149  0.2420174197666611   T   T   T
  0.3305776034705445  0.9946663853644893  0.2418693390082538   T   T   T
  0.6696378156301250  0.0006630978139484  0.2415771250358816   T   T   T
  0.3374182310251612  0.3326601058565259  0.2475472093930406   T   T   T
  0.6676141365177841  0.3301701223643789  0.2451879927680380   T   T   T
  0.0055726769445386  0.3341631443104873  0.2417044674266009   T   T   T
  0.3353404207780031  0.6663692379927184  0.2416828820685240   T   T   T
  0.6728486272610965  0.6740438813997756  0.2417307667211333   T   T   T
  0.9993770981816041  0.6671706464106038  0.2429719256453353   T   T   T
  0.4325270288301724  0.3399611242576626  0.3265652850426832   T   T   T
  0.4179643600719629  0.5124587363745263  0.3560192084910625   T   T   T
  0.2966627688636407  0.1280728994682647  0.3525386894620866   T   T   T
  0.6375826073938669  0.3791837177083224  0.3245314551630898   T   T   T
  0.2578270703983705  0.4848691701692545  0.3558506846826717   T   T   T
  0.4682645024128220  0.5180294333614128  0.3984918894975493   T   T   T
  0.5216007892660599  0.6662638309706068  0.3376892486203218   T   T   T
  0.3469152710041712  0.1333417467829534  0.3949967957130198   T   T   T
  0.1312665277985445  0.0837674094631282  0.3522229164411002   T   T   T
  0.3132079521240954  0.0036244462541788  0.3321981726390888   T   T   T
  0.7626847863338142  0.5492430575568292  0.2907760722652692   T   T   T
 
  0.00000000E+00  0.00000000E+00  0.00000000E+00
  0.00000000E+00  0.00000000E+00  0.00000000E+00
  0.00000000E+00  0.00000000E+00  0.00000000E+00
  0.00000000E+00  0.00000000E+00  0.00000000E+00
  0.00000000E+00  0.00000000E+00  0.00000000E+00
  0.00000000E+00  0.00000000E+00  0.00000000E+00
  0.00000000E+00  0.00000000E+00  0.00000000E+00
  0.00000000E+00  0.00000000E+00  0.00000000E+00
  0.00000000E+00  0.00000000E+00  0.00000000E+00
  0.00000000E+00  0.00000000E+00  0.00000000E+00
  0.00000000E+00  0.00000000E+00  0.00000000E+00
  0.00000000E+00  0.00000000E+00  0.00000000E+00
  0.00000000E+00  0.00000000E+00  0.00000000E+00
  0.00000000E+00  0.00000000E+00  0.00000000E+00
  0.00000000E+00  0.00000000E+00  0.00000000E+00
  0.00000000E+00  0.00000000E+00  0.00000000E+00
  0.00000000E+00  0.00000000E+00  0.00000000E+00
  0.00000000E+00  0.00000000E+00  0.00000000E+00
  0.00000000E+00  0.00000000E+00  0.00000000E+00
  0.00000000E+00  0.00000000E+00  0.00000000E+00
  0.00000000E+00  0.00000000E+00  0.00000000E+00
  0.00000000E+00  0.00000000E+00  0.00000000E+00
  0.00000000E+00  0.00000000E+00  0.00000000E+00
  0.00000000E+00  0.00000000E+00  0.00000000E+00
  0.00000000E+00  0.00000000E+00  0.00000000E+00
  0.00000000E+00  0.00000000E+00  0.00000000E+00
  0.00000000E+00  0.00000000E+00  0.00000000E+00
  0.00000000E+00  0.00000000E+00  0.00000000E+00
  0.00000000E+00  0.00000000E+00  0.00000000E+00
  0.00000000E+00  0.00000000E+00  0.00000000E+00
  0.00000000E+00  0.00000000E+00  0.00000000E+00
  0.00000000E+00  0.00000000E+00  0.00000000E+00
  0.00000000E+00  0.00000000E+00  0.00000000E+00
  0.00000000E+00  0.00000000E+00  0.00000000E+00
  0.00000000E+00  0.00000000E+00  0.00000000E+00
  0.00000000E+00  0.00000000E+00  0.00000000E+00
  0.00000000E+00  0.00000000E+00  0.00000000E+00
  0.00000000E+00  0.00000000E+00  0.00000000E+00
  0.00000000E+00  0.00000000E+00  0.00000000E+00
  0.00000000E+00  0.00000000E+00  0.00000000E+00
  0.00000000E+00  0.00000000E+00  0.00000000E+00
  0.00000000E+00  0.00000000E+00  0.00000000E+00
  0.00000000E+00  0.00000000E+00  0.00000000E+00
  0.00000000E+00  0.00000000E+00  0.00000000E+00
  0.00000000E+00  0.00000000E+00  0.00000000E+00
  0.00000000E+00  0.00000000E+00  0.00000000E+00
  0.00000000E+00  0.00000000E+00  0.00000000E+00
