CH3CH2OH                                
   1.00000000000000     
    20.0000000000000000    0.0000000000000000    0.0000000000000000
     0.0000000000000000   20.0000000000000000    0.0000000000000000
     0.0000000000000000    0.0000000000000000   20.0000000000000000
   C    O    H 
     3     1     6
Direct
  0.4429651682946556  0.4972364066717034  0.4695807041685427
  0.4883495345883304  0.4990181298864584  0.5300366344967031
  0.5625352247415591  0.5031462321739042  0.5161709087983297
  0.4662763124865208  0.4973132916094087  0.5871755143897417
  0.3905150290461279  0.4940689713757038  0.4850822693088261
  0.4556631492123344  0.4542706578090190  0.4375633939807315
  0.4506856476023273  0.5423020191600685  0.4388825124217135
  0.5785568332210715  0.4602591403054532  0.4855794981526813
  0.5737902942314292  0.5483273097629535  0.4867552912797493
  0.5906628565756549  0.5040578412453200  0.5621733230029781
 
  0.00000000E+00  0.00000000E+00  0.00000000E+00
  0.00000000E+00  0.00000000E+00  0.00000000E+00
  0.00000000E+00  0.00000000E+00  0.00000000E+00
  0.00000000E+00  0.00000000E+00  0.00000000E+00
  0.00000000E+00  0.00000000E+00  0.00000000E+00
  0.00000000E+00  0.00000000E+00  0.00000000E+00
  0.00000000E+00  0.00000000E+00  0.00000000E+00
  0.00000000E+00  0.00000000E+00  0.00000000E+00
  0.00000000E+00  0.00000000E+00  0.00000000E+00
  0.00000000E+00  0.00000000E+00  0.00000000E+00
